 vasp.5.4.4.18Apr17-6-g9f103f2a35 (build Apr 24 2018 11:19:41) complex

 executed on         CrayXC-Intel date 2021.08.20  15:44:55

 INCAR:
 POTCAR:    PAW_PBE Mn_pv 02Aug2007
 POTCAR:    PAW_PBE F 08Apr2002
 POTCAR:    PAW_PBE H 15Jun2001

 POTCAR:    PAW_PBE Mn_pv 02Aug2007
   VRHFIN =Mn: 3p4s3d

   TITEL  = PAW_PBE Mn_pv 02Aug2007
   POMASS =   54.938; ZVAL   =   13.000    mass and valenz
   ENMAX  =  269.864; ENMIN  =  202.398 eV

 POTCAR:    PAW_PBE F 08Apr2002
   VRHFIN =F: s2p5

   TITEL  = PAW_PBE F 08Apr2002
   POMASS =   18.998; ZVAL   =    7.000    mass and valenz
   ENMAX  =  400.000; ENMIN  =  300.000 eV

 POTCAR:    PAW_PBE H 15Jun2001
   VRHFIN =H: ultrasoft test

   TITEL  = PAW_PBE H 15Jun2001
   POMASS =    1.000; ZVAL   =    1.000    mass and valenz
   ENMAX  =  250.000; ENMIN  =  200.000 eV

  PAW_PBE Mn_pv 02Aug2007               :
  PAW_PBE F 08Apr2002                   :
  PAW_PBE H 15Jun2001                   :

 POSCAR: Mn  F  H
  positions in direct lattice
  velocities in cartesian coordinates
 exchange correlation table for  LEXCH =       14
   RHO(1)=    0.500       N(1)  =     2000
   RHO(2)=  100.500       N(2)  =     4000

 ion  position               nearest neighbor table
   1  0.165  0.165  0.125-  73 2.09  74 2.09  76 2.12  80 2.12  79 2.18  75 2.18
   2  0.000  1.000  0.971- 117 2.02 182 2.02 217 2.03  75 2.06 204 2.06 105 2.33 170 2.33   8 3.03

   3  0.168  0.168  0.376-  77 2.10  78 2.10  84 2.11  80 2.12  83 2.14  79 2.18
   4  0.000  1.000  0.279- 109 2.02 174 2.02 217 2.03  79 2.06 208 2.06 105 2.33 170 2.33   6 3.03

[...]

   9  0.167  0.500  0.125-  90 2.11  89 2.11  92 2.13  96 2.13  95 2.13  91 2.13
  10  0.000  0.333  1.000-  91 2.10 198 2.12 172 2.13 186 2.13  85 2.13  73 2.14
  11  0.167  0.500  0.375-  94 2.10  93 2.11  99 2.13 100 2.13  96 2.13  95 2.14
  12  0.000  0.333  0.250-  95 2.10 190 2.12 176 2.13 186 2.13  77 2.13  73 2.14
  13  0.167  0.500  0.625-  98 2.10  97 2.10 100 2.13 104 2.13 103 2.14  99 2.14
  14  1.000  0.334  0.500-  99 2.10 180 2.10 194 2.13  81 2.14 190 2.14  77 2.14
  15  0.167  0.500  0.875- 102 2.10 101 2.11 103 2.13 104 2.13  92 2.13  91 2.14
  16  1.000  0.334  0.750- 103 2.10 184 2.10 194 2.13  81 2.14 198 2.14  85 2.14
  17  0.169  0.831  0.125- 106 2.07 111 2.11 108 2.11 107 2.11 112 2.11 105 2.36
  18  1.000  0.667  1.000- 188 2.10 101 2.12 107 2.13  89 2.13 214 2.13 202 2.14
  19  0.170  0.830  0.376- 110 2.07 109 2.11 116 2.12 115 2.12 111 2.15 112 2.15
  20  1.000  0.667  0.250- 192 2.10  93 2.12 111 2.13  89 2.13 206 2.13 202 2.14
  21  0.170  0.830  0.625- 114 2.08 113 2.11 119 2.13 120 2.13 116 2.13 115 2.13
  22  0.000  0.666  0.500- 196 2.10 115 2.10  97 2.13 210 2.14  93 2.14 206 2.14
  23  0.170  0.830  0.874- 118 2.07 117 2.11 120 2.12 119 2.12 107 2.15 108 2.15
  24  0.000  0.666  0.750- 200 2.10 119 2.10  97 2.13 210 2.14 101 2.14 214 2.14
  25  0.500  0.167  0.125- 121 2.10 122 2.11 128 2.13 124 2.13 123 2.13 127 2.13
  26  0.333  0.000  0.000- 123 2.10 165 2.12 108 2.13 153 2.13  86 2.13  74 2.14
  27  0.500  0.167  0.375- 125 2.10 126 2.11 131 2.13 132 2.13 128 2.13 127 2.14
  28  0.333  0.000  0.250- 127 2.10 157 2.12 112 2.13 153 2.13  78 2.13  74 2.14
  29  0.500  0.167  0.625- 129 2.10 130 2.10 136 2.13 132 2.13 131 2.14 135 2.14
  30  0.334  1.000  0.500- 131 2.10 116 2.10 161 2.13  82 2.14 157 2.14  78 2.14
  31  0.500  0.167  0.875- 133 2.10 134 2.11 135 2.13 136 2.13 124 2.13 123 2.14
  32  0.334  1.000  0.750- 135 2.10 120 2.10 161 2.13  82 2.14 165 2.14  86 2.14
  33  0.500  0.500  0.125- 138 2.09 137 2.09 144 2.13 140 2.13 139 2.13 143 2.13
  34  0.333  0.333  0.000- 139 2.11  76 2.13 102 2.13 133 2.13 121 2.13  90 2.13
  35  0.500  0.500  0.375- 141 2.09 142 2.09 148 2.13 147 2.13 143 2.13 144 2.13
  36  0.333  0.333  0.250- 143 2.11  80 2.13  94 2.13 125 2.13  90 2.13 121 2.13
  37  0.500  0.500  0.625- 146 2.09 145 2.09 147 2.13 152 2.13 148 2.13 151 2.13
  38  0.334  0.334  0.500- 147 2.10  84 2.11 129 2.13  98 2.13 125 2.14  94 2.14
  39  0.500  0.500  0.875- 150 2.09 149 2.09 152 2.13 151 2.13 139 2.13 140 2.13
  40  0.334  0.334  0.750- 151 2.10  88 2.11  98 2.13 129 2.13 133 2.14 102 2.14
  41  0.500  0.833  0.125- 154 2.10 153 2.11 155 2.13 159 2.13 160 2.13 156 2.13
  42  0.335  0.665  0.000-  92 2.10 155 2.10 137 2.11 149 2.12 118 2.12 106 2.14
  43  0.500  0.833  0.375- 158 2.10 157 2.11 164 2.13 163 2.13 159 2.13 160 2.14
  44  0.335  0.665  0.250-  96 2.10 159 2.10 137 2.11 141 2.12 110 2.12 106 2.14
  45  0.500  0.833  0.625- 162 2.10 161 2.10 163 2.13 167 2.13 168 2.14 164 2.14
  46  0.335  0.665  0.500- 100 2.10 163 2.10 141 2.12 114 2.12 145 2.12 110 2.14
  47  0.500  0.833  0.875- 166 2.10 165 2.11 168 2.13 167 2.13 155 2.13 156 2.14
  48  0.335  0.665  0.750- 104 2.10 167 2.10 149 2.12 114 2.12 145 2.12 118 2.14
  49  0.831  0.169  0.125- 169 2.07 171 2.11 176 2.11 172 2.11 175 2.11 170 2.36
  50  0.667  1.000  1.000- 156 2.10 134 2.12 171 2.13 122 2.13 213 2.13 201 2.14
  51  0.830  0.170  0.376- 173 2.07 174 2.11 179 2.12 180 2.12 175 2.15 176 2.15
  52  0.667  1.000  0.250- 160 2.10 126 2.12 175 2.13 122 2.13 205 2.13 201 2.14
  53  0.831  0.169  0.625- 177 2.08 178 2.11 180 2.13 179 2.13 183 2.13 184 2.13
  54  0.666  0.000  0.500- 164 2.10 179 2.10 130 2.13 209 2.14 126 2.14 205 2.14
  55  0.830  0.170  0.874- 181 2.07 182 2.11 183 2.12 184 2.12 172 2.15 171 2.15
  56  0.666  0.000  0.750- 168 2.10 183 2.10 130 2.13 209 2.14 134 2.14 213 2.14
  57  0.833  0.500  0.125- 185 2.10 186 2.11 187 2.13 191 2.13 192 2.13 188 2.13
  58  0.665  0.335  0.000- 187 2.10 124 2.10 138 2.11 150 2.12 181 2.12 169 2.14
  59  0.833  0.500  0.375- 189 2.10 190 2.11 196 2.13 195 2.13 191 2.13 192 2.14
  60  0.665  0.335  0.250- 191 2.10 128 2.10 138 2.11 142 2.12 173 2.12 169 2.14
  61  0.833  0.500  0.625- 193 2.10 194 2.10 199 2.13 195 2.13 196 2.14 200 2.14
  62  0.665  0.335  0.500- 195 2.10 132 2.10 142 2.12 177 2.12 146 2.12 173 2.14
  63  0.833  0.500  0.875- 197 2.10 198 2.11 200 2.13 199 2.13 187 2.13 188 2.14
  64  0.665  0.335  0.750- 136 2.10 199 2.10 150 2.12 177 2.12 146 2.12 181 2.14
  65  0.835  0.835  0.125- 201 2.09 202 2.09 203 2.12 207 2.12 208 2.18 204 2.18
  66  0.667  0.667  0.000- 140 2.11 203 2.13 166 2.13 197 2.13 185 2.13 154 2.13
  67  0.832  0.832  0.376- 205 2.10 206 2.10 211 2.11 207 2.12 212 2.14 208 2.18
  68  0.667  0.667  0.250- 144 2.11 207 2.13 189 2.13 158 2.13 154 2.13 185 2.13
[...]
 203  0.770  0.770  0.001-  71 2.12  65 2.12  66 2.13
 204  0.902  0.902  0.997-   2 2.06  71 2.18  65 2.18
 205  0.733  0.936  0.375-  67 2.10  52 2.13  54 2.14
 206  0.936  0.733  0.375-  67 2.10  20 2.13  22 2.14
 207  0.770  0.770  0.249-  67 2.12  65 2.12  68 2.13
 208  0.902  0.902  0.253-   4 2.06  67 2.18  65 2.18
 209  0.732  0.935  0.625-  69 2.10  56 2.14  54 2.14
 210  0.936  0.732  0.625-  69 2.10  24 2.14  22 2.14
 211  0.768  0.768  0.500-  70 2.11  67 2.11  69 2.12
 212  0.899  0.899  0.500-   6 2.10  67 2.14  69 2.14
 213  0.733  0.936  0.875-  71 2.10  50 2.13  56 2.14
 214  0.936  0.733  0.875-  71 2.10  18 2.13  24 2.14
 215  0.768  0.768  0.750-  72 2.11  71 2.11  69 2.12
 216  0.899  0.899  0.750-   8 2.10  71 2.14  69 2.14
 217  1.000  0.000  0.125- 170 1.14 105 1.15   4 2.03   2 2.03

IMPORTANT INFORMATION: All symmetrisations will be switched off!
NOSYMM: (Re-)initialisation of all symmetry stuff for point group C_1.

 KPOINTS: KPOINTS created by Atomic Simulation Env

Automatic generation of k-mesh.
Space group operators:
 irot       det(A)        alpha          n_x          n_y          n_z        tau_x        tau_y        tau_z
    1     1.000000     0.000000     1.000000     0.000000     0.000000     0.000000     0.000000     0.000000

 Subroutine IBZKPT returns following result:

 Found      4 irreducible k-points:

 Following reciprocal coordinates:
            Coordinates               Weight
  0.250000  0.250000  0.250000      2.000000
 -0.250000  0.250000  0.250000      2.000000
  0.250000 -0.250000  0.250000      2.000000
 -0.250000 -0.250000  0.250000      2.000000

 Following cartesian coordinates:
            Coordinates               Weight
  0.017066  0.017066  0.018935      2.000000
 -0.017066  0.017066  0.018935      2.000000
  0.017066 -0.017066  0.018935      2.000000
 -0.017066 -0.017066  0.018935      2.000000

 SYSTEM =  unknown system
 POSCAR =  Mn  F  H

 Startparameter for this run:
   NWRITE =      2    write-flag & timer
   PREC   = normal    normal or accurate (medium, high low for compatibility)
   ISTART =      1    job   : 0-new  1-cont  2-samecut
   ICHARG =      1    charge: 1-file 2-atom 10-const
   ISPIN  =      2    spin polarized calculation?
   LNONCOLLINEAR =      F non collinear calculations
   LSORBIT =      F    spin-orbit coupling
   INIWAV =      1    electr: 0-lowe 1-rand  2-diag
   LASPH  =      T    aspherical Exc in radial PAW
   METAGGA=      F    non-selfconsistent MetaGGA calc.

 Electronic Relaxation 1
   ENCUT  =  700.0 eV  51.45 Ry    7.17 a.u.  31.60 31.60 28.48*2*pi/ulx,y,z
   ENINI  =  700.0     initial cutoff
   ENAUG  =  613.6 eV  augmentation charge cutoff
   NELM   =     60;   NELMIN=  2; NELMDL=  0     # of ELM steps
   EDIFF  = 0.1E-06   stopping-criterion for ELM
   LREAL  =      F    real-space projection
   NLSPLINE    = F    spline interpolate recip. space projectors
   LCOMPAT=      F    compatible to vasp.4.4
   GGA_COMPAT  = T    GGA compatible to vasp.4.4-vasp.4.6
   LMAXPAW     = -100 max onsite density
   LMAXMIX     =    4 max onsite mixed and CHGCAR
   VOSKOWN=      0    Vosko Wilk Nusair interpolation
   ROPT   =    0.00000   0.00000   0.00000
 Ionic relaxation
   EDIFFG = -.5E-02   stopping-criterion for IOM
   NSW    =      0    number of steps for IOM
   NBLOCK =      1;   KBLOCK =      1    inner block; outer block
   IBRION =     -1    ionic relax: 0-MD 1-quasi-New 2-CG
   NFREE  =      0    steps in history (QN), initial steepest desc. (CG)
   ISIF   =      2    stress and relaxation
   IWAVPR =     10    prediction:  0-non 1-charg 2-wave 3-comb
   ISYM   =      0    0-nonsym 1-usesym 2-fastsym
   LCORR  =      T    Harris-Foulkes like correction to forces

   POTIM  = 0.5000    time-step for ionic-motion
   TEIN   =    0.0    initial temperature
   TEBEG  =    0.0;   TEEND  =   0.0 temperature during run
   SMASS  =  -3.00    Nose mass-parameter (am)
   estimated Nose-frequenzy (Omega)   =  0.10E-29 period in steps =****** mass=  -0.490E-26a.u.
   SCALEE = 1.0000    scale energy and forces
   NPACO  =    256;   APACO  = 16.0  distance and # of slots for P.C.
   PSTRESS=    0.0 pullay stress

  Mass of Ions in am
   POMASS =  54.94 19.00  1.00
  Ionic Valenz
   ZVAL   =  13.00  7.00  1.00
  Atomic Wigner-Seitz radii
  virtual crystal weights
   VCA    =   1.00  1.00  1.00
   NELECT =    1944.0000    total number of electrons
   NUPDOWN=      -1.0000    fix difference up-down

 DOS related values:
   EMIN   =  10.00;   EMAX   =-10.00  energy-range for DOS
   EFERMI =   0.00
   ISMEAR =     0;   SIGMA  =   0.01  broadening in eV -4-tet -1-fermi 0-gaus

 Electronic relaxation 2 (details)
   IALGO  =     68    algorithm
[...]

 Fermi contact (isotropic) hyperfine coupling parameter (MHz)
  ion      A_pw      A_1PS     A_1AE     A_1c      A_tot
   1     121.898   121.888    37.332  -116.150    37.341
   2    -121.160  -121.149   -39.754   114.873   -39.765
   3     121.876   121.867    37.649  -116.058    37.658
   4    -121.160  -121.149   -39.753   114.873   -39.764
   5     121.888   121.879    37.541  -116.061    37.550
   6    -121.703  -121.694   -35.607   115.547   -35.617
   7     121.876   121.867    37.648  -116.058    37.657
   8    -121.703  -121.694   -35.607   115.547   -35.616
   9     121.906   121.897    37.271  -116.094    37.280
  10    -121.916  -121.907   -37.428   116.119   -37.438
  11     121.909   121.900    37.379  -116.107    37.388
  12    -121.916  -121.907   -37.429   116.119   -37.438
  13     121.910   121.901    37.498  -116.113    37.507
  14    -121.907  -121.898   -37.482   116.103   -37.491
  15     121.909   121.900    37.381  -116.107    37.390
  16    -121.907  -121.898   -37.481   116.104   -37.490
  17     121.779   121.769    40.439  -116.011    40.449
  18    -121.916  -121.907   -37.432   116.119   -37.441
  19     121.864   121.855    37.343  -116.009    37.353
  20    -121.916  -121.907   -37.431   116.119   -37.441
  21     121.882   121.873    36.975  -116.016    36.984
  22    -121.907  -121.898   -37.481   116.103   -37.490
  23     121.864   121.855    37.343  -116.009    37.353
  24    -121.907  -121.898   -37.480   116.103   -37.490
  25     121.906   121.897    37.271  -116.094    37.280
  26    -121.916  -121.907   -37.431   116.119   -37.440
  27     121.909   121.900    37.380  -116.107    37.389
  28    -121.916  -121.907   -37.430   116.120   -37.440
  29     121.910   121.901    37.496  -116.114    37.506
  30    -121.907  -121.898   -37.481   116.104   -37.491
  31     121.909   121.900    37.379  -116.107    37.389
  32    -121.907  -121.898   -37.482   116.103   -37.491
  33     121.877   121.868    37.331  -116.007    37.340
  34    -121.920  -121.911   -37.286   116.134   -37.295
  35     121.876   121.867    37.432  -116.007    37.442
  36    -121.920  -121.911   -37.287   116.134   -37.296
  37     121.878   121.869    37.553  -116.015    37.562
  38    -121.903  -121.894   -37.428   116.087   -37.437
  39     121.876   121.867    37.432  -116.007    37.442
  40    -121.903  -121.894   -37.427   116.087   -37.437
  41     121.906   121.897    37.272  -116.094    37.281
  42    -121.872  -121.863   -37.301   115.990   -37.310
  43     121.909   121.900    37.379  -116.107    37.388
  44    -121.872  -121.863   -37.299   115.990   -37.308
  45     121.910   121.901    37.496  -116.114    37.506
  46    -121.895  -121.885   -37.561   116.055   -37.570
  47     121.909   121.900    37.380  -116.106    37.389
  48    -121.894  -121.885   -37.562   116.055   -37.571
  49     121.782   121.772    40.381  -116.013    40.391
  50    -121.916  -121.907   -37.427   116.119   -37.436
  51     121.866   121.856    37.334  -116.012    37.343
  52    -121.916  -121.907   -37.429   116.119   -37.438
  53     121.882   121.872    36.980  -116.015    36.989
  54    -121.907  -121.898   -37.482   116.104   -37.491
  55     121.866   121.856    37.334  -116.012    37.343
  56    -121.907  -121.898   -37.480   116.104   -37.489
  57     121.906   121.897    37.271  -116.094    37.280
  58    -121.872  -121.863   -37.302   115.991   -37.311
  59     121.909   121.900    37.381  -116.106    37.390
  60    -121.872  -121.863   -37.300   115.991   -37.309
[...]
 203       0.967     0.963     5.591    -0.714     5.595
 204       0.555     0.554     5.773    -0.259     5.775
 205      -0.804    -0.801    -5.449     0.547    -5.452
 206      -0.804    -0.801    -5.448     0.548    -5.451
 207       0.967     0.963     5.591    -0.715     5.594
 208       0.555     0.554     5.773    -0.259     5.775
 209      -0.828    -0.825    -5.460     0.573    -5.463
 210      -0.828    -0.825    -5.461     0.573    -5.464
 211       0.939     0.936     5.622    -0.683     5.625
 212       0.766     0.763     5.428    -0.508     5.431
 213      -0.804    -0.801    -5.449     0.548    -5.451
 214      -0.804    -0.801    -5.448     0.548    -5.451
 215       0.939     0.936     5.621    -0.683     5.625
 216       0.766     0.763     5.428    -0.508     5.431
 217       0.320     0.321     0.524     0.000     0.523

 Dipolar hyperfine coupling parameters (MHz)
  ion      A_xx      A_yy      A_zz      A_xy      A_xz      A_yz
   1      -0.568    -0.569     1.138    -0.393     0.000    -0.000
   2       0.310     0.311    -0.620    -0.043    -0.002     0.001
   3      -0.667    -0.667     1.334    -0.392    -0.012    -0.013
   4       0.310     0.310    -0.620    -0.043     0.003    -0.002
   5      -0.679    -0.679     1.358    -0.348     0.000    -0.000
   6       0.544     0.544    -1.088     0.021     0.002    -0.001
   7      -0.666    -0.668     1.334    -0.392     0.012     0.012
   8       0.543     0.544    -1.087     0.022    -0.001     0.000
   9      -0.707    -0.626     1.333    -0.252    -0.000    -0.000
  10       0.747     0.613    -1.360    -0.240     0.017    -0.003
  11      -0.699    -0.635     1.335    -0.287    -0.003    -0.022
  12       0.747     0.613    -1.360    -0.240    -0.018     0.003
  13      -0.662    -0.676     1.337    -0.330    -0.000    -0.000
  14       0.666     0.659    -1.325    -0.321    -0.001    -0.009
  15      -0.700    -0.635     1.335    -0.287     0.002     0.021
  16       0.666     0.659    -1.325    -0.321    -0.000     0.008
  17      -0.744    -0.744     1.488     0.180     0.000    -0.000
  18       0.748     0.612    -1.360    -0.240    -0.018     0.003
  19      -0.711    -0.710     1.421    -0.299     0.009    -0.008
  20       0.747     0.613    -1.360    -0.240     0.017    -0.003
  21      -0.689    -0.689     1.378    -0.229     0.000    -0.000
  22       0.665     0.660    -1.325    -0.321     0.000     0.009
  23      -0.711    -0.710     1.421    -0.298    -0.009     0.007
  24       0.664     0.661    -1.325    -0.321    -0.001    -0.010
  25      -0.627    -0.706     1.333    -0.253    -0.000     0.000
  26       0.612     0.748    -1.360    -0.240    -0.003     0.017
  27      -0.635    -0.700     1.335    -0.287    -0.021    -0.002
  28       0.612     0.748    -1.360    -0.240     0.003    -0.017
  29      -0.675    -0.663     1.338    -0.330     0.000     0.000
  30       0.659     0.665    -1.325    -0.321    -0.009    -0.000
  31      -0.635    -0.699     1.335    -0.287     0.022     0.003
  32       0.660     0.664    -1.325    -0.321     0.009     0.000
  33      -0.643    -0.642     1.286    -0.306    -0.000     0.001
  34       0.689     0.689    -1.377    -0.216     0.012     0.012
  35      -0.648    -0.648     1.297    -0.333     0.000     0.000
  36       0.688     0.689    -1.377    -0.216    -0.013    -0.012
  37      -0.655    -0.655     1.310    -0.370    -0.000     0.000
  38       0.669     0.669    -1.338    -0.318    -0.006    -0.006
  39      -0.648    -0.648     1.297    -0.333    -0.001     0.000
  40       0.669     0.669    -1.338    -0.318     0.005     0.006
  41      -0.626    -0.707     1.333    -0.253     0.000     0.000
  42       0.679     0.679    -1.359    -0.317    -0.048     0.048
  43      -0.636    -0.699     1.335    -0.287     0.022     0.002
  44       0.680     0.678    -1.359    -0.316     0.048    -0.047
  45      -0.676    -0.661     1.337    -0.330     0.000     0.000
  46       0.686     0.685    -1.371    -0.341     0.044    -0.044
  47      -0.635    -0.700     1.335    -0.287    -0.022    -0.002
  48       0.686     0.685    -1.371    -0.341    -0.044     0.044
  49      -0.743    -0.743     1.485     0.172     0.000     0.000
  50       0.614     0.746    -1.360    -0.240     0.003    -0.018
  51      -0.712    -0.711     1.423    -0.296    -0.009     0.009
  52       0.613     0.747    -1.360    -0.240    -0.003     0.018
  53      -0.690    -0.688     1.378    -0.231     0.000    -0.000
  54       0.660     0.664    -1.324    -0.321     0.009     0.001
  55      -0.712    -0.711     1.423    -0.296     0.009    -0.008
  56       0.659     0.665    -1.324    -0.321    -0.008    -0.001
  57      -0.707    -0.626     1.333    -0.253     0.000     0.000
  58       0.679     0.680    -1.359    -0.317     0.046    -0.047
  59      -0.699    -0.636     1.335    -0.287     0.003     0.022
  60       0.679     0.680    -1.359    -0.316    -0.047     0.047
[...]
 203      -1.318    -1.319     2.637    -0.212     0.070     0.071
 204      -1.103    -1.103     2.207     0.084     0.435     0.431
 205       1.097     1.391    -2.488    -0.242    -0.018    -0.031
 206       1.392     1.095    -2.487    -0.244    -0.031    -0.018
 207      -1.321    -1.315     2.636    -0.212    -0.070    -0.070
 208      -1.106    -1.100     2.206     0.084    -0.435    -0.431
 209       1.127     1.360    -2.487    -0.248    -0.000    -0.000
 210       1.361     1.125    -2.487    -0.248     0.000    -0.000
 211      -1.288    -1.289     2.578    -0.259    -0.031    -0.031
 212      -1.214    -1.214     2.429    -0.265    -0.089    -0.089
 213       1.096     1.391    -2.487    -0.243     0.019     0.032
 214       1.393     1.095    -2.488    -0.244     0.031     0.018
 215      -1.290    -1.288     2.578    -0.259     0.031     0.031
 216      -1.215    -1.214     2.428    -0.265     0.089     0.090
 217       2.423     2.422    -4.845     0.140     0.001    -0.001

 Total hyperfine coupling parameters after diagonalization (MHz)
 (convention: |A_zz| > |A_xx| > |A_yy|)
  ion      A_xx      A_yy      A_zz     asymmetry (A_yy - A_xx)/ A_zz
   1      37.165    36.380    38.479      -0.020
   2     -39.498   -39.412   -40.385      -0.002
   3      37.383    36.599    38.992      -0.020
   4     -39.497   -39.411   -40.384      -0.002
   5      37.220    36.523    38.908      -0.018
   6     -35.094   -35.052   -36.704      -0.001
   7      37.382    36.598    38.992      -0.020
   8     -35.094   -35.051   -36.704      -0.001
   9      36.869    36.358    38.613      -0.013
  10     -37.007   -36.508   -38.798      -0.013
  11      37.009    36.432    38.723      -0.015
  12     -37.008   -36.509   -38.799      -0.013
  13      37.168    36.508    38.844      -0.017
  14     -37.150   -36.508   -38.816      -0.017
  15      37.012    36.433    38.725      -0.015
  16     -37.149   -36.507   -38.815      -0.017
  17      39.885    39.525    41.937      -0.009
  18     -37.010   -36.511   -38.801      -0.013
  19      36.941    36.344    38.774      -0.015
  20     -37.010   -36.511   -38.801      -0.013
  21      36.524    36.065    38.362      -0.012
  22     -37.149   -36.507   -38.815      -0.017
  23      36.940    36.344    38.774      -0.015
  24     -37.148   -36.506   -38.815      -0.017
  25      36.869    36.358    38.612      -0.013
  26     -37.009   -36.511   -38.800      -0.013
  27      37.011    36.433    38.724      -0.015
  28     -37.009   -36.510   -38.800      -0.013
  29      37.167    36.507    38.843      -0.017
  30     -37.149   -36.507   -38.815      -0.017
  31      37.010    36.432    38.724      -0.015
  32     -37.150   -36.508   -38.816      -0.017
  33      37.004    36.391    38.626      -0.016
  34     -36.822   -36.390   -38.672      -0.011
  35      37.126    36.460    38.738      -0.017
  36     -36.823   -36.391   -38.673      -0.011
  37      37.277    36.537    38.872      -0.019
  38     -37.086   -36.450   -38.776      -0.016
  39      37.126    36.461    38.738      -0.017
  40     -37.085   -36.450   -38.775      -0.016
  41      36.871    36.359    38.614      -0.013
  42     -36.948   -36.312   -38.671      -0.016
  43      37.009    36.432    38.723      -0.015
  44     -36.946   -36.311   -38.669      -0.016
  45      37.167    36.507    38.843      -0.017
  46     -37.226   -36.542   -38.943      -0.018
  47      37.010    36.433    38.724      -0.015
  48     -37.227   -36.542   -38.943      -0.018
  49      39.821    39.477    41.877      -0.008
  50     -37.006   -36.507   -38.796      -0.013
  51      36.927    36.336    38.766      -0.015
  52     -37.007   -36.508   -38.798      -0.013
  53      36.531    36.069    38.367      -0.012
  54     -37.150   -36.508   -38.816      -0.017
  55      36.927    36.336    38.766      -0.015
  56     -37.148   -36.506   -38.814      -0.017
  57      36.869    36.358    38.613      -0.013
  58     -36.949   -36.313   -38.672      -0.016
  59      37.012    36.434    38.726      -0.015
  60     -36.946   -36.311   -38.670      -0.016
[...]
 203       4.488     4.062     8.233      -0.052
 204       4.643     4.587     8.093      -0.007
 205      -4.491    -3.924    -7.940      -0.071
 206      -4.493    -3.922    -7.939      -0.072
 207       4.488     4.062     8.233      -0.052
 208       4.643     4.587     8.093      -0.007
 209      -4.494    -3.945    -7.949      -0.069
 210      -4.495    -3.946    -7.951      -0.069
 211       4.595     4.077     8.203      -0.063
 212       4.482     3.947     7.863      -0.068
 213      -4.492    -3.924    -7.939      -0.072
 214      -4.492    -3.922    -7.939      -0.072
 215       4.595     4.076     8.203      -0.063
 216       4.482     3.948     7.863      -0.068
 217       3.085     2.806    -4.322       0.065

 writing wavefunctions

 total charge

[...]

 magnetization (x)

# of ion       s       p       d       tot
    1        0.018   0.018   4.629   4.665
    2       -0.019  -0.025  -4.599  -4.643
    3        0.018   0.019   4.628   4.665
    4       -0.019  -0.025  -4.599  -4.643
    5        0.018   0.019   4.628   4.665
    6       -0.017  -0.018  -4.620  -4.655
    7        0.018   0.019   4.628   4.665
    8       -0.017  -0.018  -4.620  -4.655
    9        0.018   0.018   4.629   4.666
   10       -0.018  -0.018  -4.629  -4.666
   11        0.018   0.018   4.629   4.666
   12       -0.018  -0.018  -4.629  -4.666
   13        0.018   0.018   4.629   4.666
   14       -0.018  -0.018  -4.629  -4.666
   15        0.018   0.018   4.629   4.666
   16       -0.018  -0.018  -4.629  -4.666
   17        0.020   0.021   4.624   4.665
   18       -0.018  -0.019  -4.629  -4.666
   19        0.018   0.019   4.627   4.664
   20       -0.018  -0.019  -4.629  -4.666
   21        0.018   0.018   4.627   4.664
   22       -0.018  -0.018  -4.629  -4.666
   23        0.018   0.019   4.627   4.664
   24       -0.018  -0.018  -4.629  -4.666
   25        0.018   0.018   4.629   4.666
   26       -0.018  -0.019  -4.629  -4.666
   27        0.018   0.018   4.629   4.666
   28       -0.018  -0.018  -4.629  -4.666
   29        0.018   0.018   4.629   4.666
   30       -0.018  -0.018  -4.629  -4.666
   31        0.018   0.018   4.629   4.666
   32       -0.018  -0.018  -4.629  -4.666
   33        0.018   0.019   4.627   4.664
   34       -0.018  -0.018  -4.629  -4.666
   35        0.018   0.019   4.627   4.664
   36       -0.018  -0.018  -4.629  -4.666
   37        0.018   0.019   4.627   4.664
   38       -0.018  -0.018  -4.629  -4.665
   39        0.018   0.019   4.627   4.664
   40       -0.018  -0.018  -4.629  -4.665
   41        0.018   0.018   4.629   4.666
   42       -0.018  -0.019  -4.627  -4.664
   43        0.018   0.018   4.629   4.666
   44       -0.018  -0.019  -4.627  -4.664
   45        0.018   0.018   4.629   4.666
   46       -0.018  -0.019  -4.628  -4.665
   47        0.018   0.018   4.629   4.666
   48       -0.018  -0.019  -4.628  -4.665
   49        0.020   0.021   4.624   4.665
   50       -0.018  -0.018  -4.629  -4.666
   51        0.018   0.019   4.627   4.664
   52       -0.018  -0.018  -4.629  -4.666
   53        0.018   0.018   4.627   4.664
   54       -0.018  -0.018  -4.629  -4.666
   55        0.018   0.019   4.627   4.664
   56       -0.018  -0.018  -4.629  -4.666
   57        0.018   0.018   4.629   4.666
   58       -0.018  -0.019  -4.627  -4.664
   59        0.018   0.018   4.629   4.666
   60       -0.018  -0.019  -4.627  -4.664
[...]
  203        0.002   0.018   0.000   0.020
  204        0.002   0.008   0.000   0.010
  205       -0.002  -0.014   0.000  -0.016
  206       -0.002  -0.014   0.000  -0.016
  207        0.002   0.018   0.000   0.020
  208        0.002   0.008   0.000   0.010
  209       -0.002  -0.015   0.000  -0.017
  210       -0.002  -0.015   0.000  -0.017
  211        0.002   0.017   0.000   0.019
  212        0.002   0.013   0.000   0.015
  213       -0.002  -0.014   0.000  -0.016
  214       -0.002  -0.014   0.000  -0.016
  215        0.002   0.017   0.000   0.019
  216        0.002   0.013   0.000   0.015
  217        0.005  -0.000   0.000   0.005
tot          0.010  -0.071   0.051  -0.010