 vasp.5.4.4.18Apr17-6-g9f103f2a35 (build Apr 24 2018 11:19:41) complex

 executed on         CrayXC-Intel date 2022.02.21  17:04:59

 INCAR:
 POTCAR:    PAW_PBE Mn_pv 02Aug2007
 POTCAR:    PAW_PBE F 08Apr2002
 POTCAR:    PAW_PBE H 15Jun2001

 POTCAR:    PAW_PBE Mn_pv 02Aug2007
   VRHFIN =Mn: 3p4s3d

   TITEL  = PAW_PBE Mn_pv 02Aug2007
   POMASS =   54.938; ZVAL   =   13.000    mass and valenz
   ENMAX  =  269.864; ENMIN  =  202.398 eV

 POTCAR:    PAW_PBE F 08Apr2002
   VRHFIN =F: s2p5

   TITEL  = PAW_PBE F 08Apr2002
   POMASS =   18.998; ZVAL   =    7.000    mass and valenz
   ENMAX  =  400.000; ENMIN  =  300.000 eV

 POTCAR:    PAW_PBE H 15Jun2001
   VRHFIN =H: ultrasoft test

   TITEL  = PAW_PBE H 15Jun2001
   POMASS =    1.000; ZVAL   =    1.000    mass and valenz
   ENMAX  =  250.000; ENMIN  =  200.000 eV

  PAW_PBE Mn_pv 02Aug2007               :
  PAW_PBE F 08Apr2002                   :
  PAW_PBE H 15Jun2001                   :

 POSCAR: Mn  F  H
  positions in direct lattice
  velocities in cartesian coordinates
 exchange correlation table for  LEXCH =       14
   RHO(1)=    0.500       N(1)  =     2000
   RHO(2)=  100.500       N(2)  =     4000

 ion  position               nearest neighbor table
   1  0.169  0.165  0.124-  74 2.09  73 2.10  76 2.12  80 2.13  75 2.13  79 2.14
   2  0.002  0.996  0.998- 170 2.09 204 2.09  75 2.10 117 2.11 105 2.12 182 2.14
   3  0.169  0.165  0.375-  78 2.09  77 2.10  84 2.12  80 2.13  83 2.13  79 2.14
   4  0.995  0.015  0.249- 217 1.59  79 2.08 208 2.13 170 2.13 174 2.14 109 2.18 105 2.18
   5  0.167  0.165  0.624-  82 2.09  81 2.09  87 2.13  88 2.13  84 2.13  83 2.13
   6  0.002  0.996  0.501- 174 2.09 212 2.09  83 2.10 113 2.11 109 2.12 178 2.14
   7  0.167  0.165  0.874-  86 2.09  85 2.09  87 2.13  88 2.13  76 2.13  75 2.13
   8  0.999  1.000  0.749- 216 2.10  87 2.10 182 2.12 178 2.12 117 2.13 113 2.13
   9  0.167  0.499  0.124-  89 2.09  90 2.10  92 2.12  96 2.13  91 2.13  95 2.13
  10  0.001  0.331  1.000-  91 2.09 172 2.09  85 2.12 186 2.12 198 2.13  73 2.15
  11  0.167  0.499  0.374-  93 2.09  94 2.10 100 2.12  96 2.13  99 2.13  95 2.13
  12  0.999  0.333  0.249-  95 2.09 176 2.11 186 2.12 190 2.12  77 2.13  73 2.13
  13  0.167  0.499  0.624-  97 2.09  98 2.09 100 2.13 103 2.13 104 2.13  99 2.13
  14  0.001  0.331  0.499-  99 2.09 180 2.09  81 2.12 190 2.12 194 2.13  77 2.15
  15  0.167  0.499  0.875- 101 2.09 102 2.09  92 2.13 103 2.13 104 2.13  91 2.13
  16  1.000  0.332  0.749- 184 2.09 103 2.09 194 2.13 198 2.13  85 2.13  81 2.13
  17  0.164  0.836  0.125- 105 2.11 106 2.12 111 2.12 112 2.12 108 2.13 107 2.13
  18  1.000  0.667  1.000- 188 2.10 107 2.10 214 2.12 202 2.13  89 2.13 101 2.13
  19  0.164  0.836  0.374- 109 2.11 110 2.12 111 2.12 112 2.12 116 2.13 115 2.13
  20  0.001  0.666  0.249- 111 2.09 192 2.10 206 2.12 202 2.12  93 2.13  89 2.13
  21  0.167  0.832  0.625- 114 2.09 113 2.09 120 2.13 119 2.13 115 2.13 116 2.13
  22  1.000  0.667  0.499- 196 2.10 115 2.10 210 2.12 206 2.13  93 2.13  97 2.13
  23  0.167  0.832  0.874- 118 2.09 117 2.09 120 2.13 119 2.13 107 2.13 108 2.13
  24  0.001  0.665  0.749- 119 2.09 200 2.10 210 2.12 214 2.12 101 2.13  97 2.13
  25  0.500  0.166  0.124- 122 2.10 121 2.10 127 2.12 124 2.13 128 2.13 123 2.13
  26  0.335  0.999  0.999- 123 2.10 108 2.10  74 2.12 165 2.12 153 2.13  86 2.13
  27  0.500  0.166  0.375- 126 2.10 125 2.10 127 2.13 132 2.13 131 2.13 128 2.13
  28  0.334  1.000  0.249- 112 2.09 127 2.09  78 2.13  74 2.13 153 2.13 157 2.13
  29  0.500  0.166  0.625- 130 2.09 129 2.10 131 2.12 136 2.13 132 2.13 135 2.13
  30  0.335  0.999  0.500- 131 2.10 116 2.10  78 2.12 161 2.12 157 2.13  82 2.13
  31  0.500  0.166  0.874- 134 2.09 133 2.10 123 2.12 136 2.13 124 2.13 135 2.13
  32  0.334  0.999  0.749- 135 2.09 120 2.09  86 2.13  82 2.13 165 2.13 161 2.13
  33  0.500  0.501  0.125- 137 2.10 138 2.10 140 2.13 144 2.13 143 2.13 139 2.13
  34  0.334  0.333  0.999- 139 2.09  76 2.10 102 2.13 121 2.13 133 2.13  90 2.13
  35  0.500  0.501  0.374- 141 2.10 142 2.10 148 2.13 144 2.13 143 2.13 147 2.13
  36  0.334  0.333  0.249- 143 2.09  80 2.10  94 2.13  90 2.13 125 2.13 121 2.13
  37  0.500  0.500  0.624- 145 2.09 146 2.09 147 2.13 152 2.13 151 2.13 148 2.13
  38  0.334  0.333  0.499- 147 2.09  84 2.10  98 2.13 129 2.13 125 2.13  94 2.13
  39  0.500  0.500  0.875- 149 2.09 150 2.09 139 2.13 152 2.13 151 2.13 140 2.13
  40  0.334  0.332  0.749- 151 2.10  88 2.10 133 2.13 129 2.13 102 2.13  98 2.13
  41  0.500  0.832  0.125- 153 2.09 154 2.09 159 2.13 155 2.13 156 2.13 160 2.13
  42  0.333  0.666  0.000- 155 2.09  92 2.10 137 2.12 118 2.13 106 2.13 149 2.13
  43  0.500  0.832  0.374- 157 2.09 158 2.09 159 2.13 163 2.13 164 2.13 160 2.13
  44  0.331  0.668  0.249- 159 2.09  96 2.10 106 2.13 110 2.13 141 2.14 137 2.14
  45  0.500  0.832  0.625- 162 2.09 161 2.10 168 2.13 164 2.13 167 2.13 163 2.13
  46  0.333  0.666  0.499- 163 2.09 100 2.10 141 2.12 114 2.13 110 2.13 145 2.13
  47  0.500  0.832  0.874- 166 2.09 165 2.10 168 2.13 156 2.13 167 2.13 155 2.13
  48  0.333  0.665  0.749- 104 2.09 167 2.09 145 2.13 149 2.13 118 2.13 114 2.13
  49  0.831  0.165  0.124- 169 2.09 170 2.12 175 2.12 172 2.12 171 2.12 176 2.15
  50  0.666  0.999  0.999- 171 2.09 156 2.09 201 2.13 134 2.13 213 2.13 122 2.13
  51  0.831  0.165  0.375- 173 2.09 174 2.12 175 2.12 180 2.12 179 2.12 176 2.15
  52  0.667  0.999  0.249- 160 2.09 175 2.10 201 2.13 205 2.13 126 2.13 122 2.13
  53  0.833  0.166  0.624- 178 2.10 177 2.10 179 2.12 184 2.13 183 2.13 180 2.13
  54  0.666  0.999  0.500- 179 2.09 164 2.09 205 2.13 130 2.13 209 2.13 126 2.13
  55  0.833  0.166  0.874- 182 2.10 181 2.10 171 2.12 184 2.13 183 2.13 172 2.13
  56  0.667  0.999  0.749- 183 2.10 168 2.10 130 2.13 134 2.13 213 2.13 209 2.13
  57  0.834  0.499  0.124- 185 2.09 186 2.10 188 2.13 187 2.13 192 2.13 191 2.13
  58  0.666  0.333  0.999- 124 2.09 187 2.10 169 2.12 150 2.12 138 2.13 181 2.13
  59  0.834  0.499  0.374- 189 2.09 190 2.10 196 2.13 195 2.13 192 2.13 191 2.13
  60  0.666  0.334  0.249- 128 2.10 191 2.10 142 2.13 138 2.13 173 2.13 169 2.13
[...]
 203  0.769  0.768  0.001-  66 2.09  71 2.13  65 2.15
 204  0.902  0.894  0.997-   2 2.09  71 2.11  65 2.12
 205  0.732  0.935  0.375-  67 2.09  54 2.13  52 2.13
 206  0.935  0.732  0.373-  67 2.10  20 2.12  22 2.13
 207  0.770  0.770  0.249-  68 2.10  65 2.13  67 2.13
 208  0.899  0.905  0.249-   4 2.13  65 2.14  67 2.14
 209  0.732  0.934  0.624-  69 2.10  56 2.13  54 2.13
 210  0.934  0.730  0.625-  69 2.10  22 2.12  24 2.12
 211  0.769  0.768  0.498-  70 2.09  69 2.13  67 2.15
 212  0.902  0.894  0.502-   6 2.09  69 2.11  67 2.12
 213  0.732  0.934  0.875-  71 2.10  56 2.13  50 2.13
 214  0.934  0.730  0.873-  71 2.10  18 2.12  24 2.12
 215  0.767  0.767  0.749-  72 2.09  69 2.12  71 2.12
 216  0.898  0.897  0.749-   8 2.10  71 2.13  69 2.13
 217  0.973  0.122  0.250-   4 1.59

IMPORTANT INFORMATION: All symmetrisations will be switched off!
NOSYMM: (Re-)initialisation of all symmetry stuff for point group C_1.

 KPOINTS: KPOINTS created by Atomic Simulation Env

Automatic generation of k-mesh.
Space group operators:
 irot       det(A)        alpha          n_x          n_y          n_z        tau_x        tau_y        tau_z
    1     1.000000     0.000000     1.000000     0.000000     0.000000     0.000000     0.000000     0.000000

 Subroutine IBZKPT returns following result:

 Found      4 irreducible k-points:

 Following reciprocal coordinates:
            Coordinates               Weight
  0.250000  0.250000  0.250000      2.000000
 -0.250000  0.250000  0.250000      2.000000
  0.250000 -0.250000  0.250000      2.000000
 -0.250000 -0.250000  0.250000      2.000000

 Following cartesian coordinates:
            Coordinates               Weight
  0.017111  0.017111  0.018996      2.000000
 -0.017111  0.017111  0.018996      2.000000
  0.017111 -0.017111  0.018996      2.000000
 -0.017111 -0.017111  0.018996      2.000000

 SYSTEM =  unknown system
 POSCAR =  Mn  F  H

 Startparameter for this run:
   NWRITE =      2    write-flag & timer
   PREC   = normal    normal or accurate (medium, high low for compatibility)
   ISTART =      0    job   : 0-new  1-cont  2-samecut
   ICHARG =      2    charge: 1-file 2-atom 10-const
   ISPIN  =      2    spin polarized calculation?
   LNONCOLLINEAR =      F non collinear calculations
   LSORBIT =      F    spin-orbit coupling
   INIWAV =      1    electr: 0-lowe 1-rand  2-diag
   LASPH  =      T    aspherical Exc in radial PAW
   METAGGA=      F    non-selfconsistent MetaGGA calc.

 Electronic Relaxation 1
   ENCUT  =  700.0 eV  51.45 Ry    7.17 a.u.  31.52 31.52 28.39*2*pi/ulx,y,z
   ENINI  =  700.0     initial cutoff
   ENAUG  =  613.6 eV  augmentation charge cutoff
   NELM   =     60;   NELMIN=  2; NELMDL= -5     # of ELM steps
   EDIFF  = 0.1E-06   stopping-criterion for ELM
   LREAL  =      F    real-space projection
   NLSPLINE    = F    spline interpolate recip. space projectors
   LCOMPAT=      F    compatible to vasp.4.4
   GGA_COMPAT  = T    GGA compatible to vasp.4.4-vasp.4.6
   LMAXPAW     = -100 max onsite density
   LMAXMIX     =    4 max onsite mixed and CHGCAR
   VOSKOWN=      0    Vosko Wilk Nusair interpolation
   ROPT   =    0.00000   0.00000   0.00000
 Ionic relaxation
   EDIFFG = -.5E-02   stopping-criterion for IOM
   NSW    =     80    number of steps for IOM
   NBLOCK =      1;   KBLOCK =     80    inner block; outer block
   IBRION =      1    ionic relax: 0-MD 1-quasi-New 2-CG
   NFREE  =      0    steps in history (QN), initial steepest desc. (CG)
   ISIF   =      2    stress and relaxation
   IWAVPR =     11    prediction:  0-non 1-charg 2-wave 3-comb
   ISYM   =      0    0-nonsym 1-usesym 2-fastsym
   LCORR  =      T    Harris-Foulkes like correction to forces

   POTIM  = 0.5000    time-step for ionic-motion
   TEIN   =    0.0    initial temperature
   TEBEG  =    0.0;   TEEND  =   0.0 temperature during run
   SMASS  =  -3.00    Nose mass-parameter (am)
   estimated Nose-frequenzy (Omega)   =  0.10E-29 period in steps =****** mass=  -0.488E-26a.u.
   SCALEE = 1.0000    scale energy and forces
   NPACO  =    256;   APACO  = 16.0  distance and # of slots for P.C.
   PSTRESS=    0.0 pullay stress

  Mass of Ions in am
   POMASS =  54.94 19.00  1.00
  Ionic Valenz
   ZVAL   =  13.00  7.00  1.00
  Atomic Wigner-Seitz radii
  virtual crystal weights
   VCA    =   1.00  1.00  1.00
   NELECT =    1945.0000    total number of electrons
   NUPDOWN=      -1.0000    fix difference up-down

 DOS related values:
   EMIN   =  10.00;   EMAX   =-10.00  energy-range for DOS
   EFERMI =   0.00
   ISMEAR =     0;   SIGMA  =   0.02  broadening in eV -4-tet -1-fermi 0-gaus

 Electronic relaxation 2 (details)
   IALGO  =     68    algorithm
   LDIAG  =      T    sub-space diagonalisation (order eigenvalues)
   LSUBROT=      F    optimize rotation matrix (better conditioning)
   TURBO    =      0    0=normal 1=particle mesh
   IRESTART =      0    0=no restart 2=restart with 2 vectors
   NREBOOT  =      0    no. of reboots
   NMIN     =      0    reboot dimension
   EREF     =   0.00    reference energy to select bands
[...]
   3     120.694   120.684    36.512  -114.262    36.522
   4    -110.550  -110.542   -14.430   103.001   -14.438
   5     120.719   120.710    36.273  -114.292    36.282
   6    -120.515  -120.505   -36.051   113.976   -36.060
   7     120.719   120.710    36.272  -114.292    36.281
   8    -120.699  -120.690   -35.914   114.231   -35.923
   9     120.715   120.706    36.179  -114.275    36.188
  10    -120.719  -120.710   -36.234   114.307   -36.243
  11     120.715   120.706    36.177  -114.275    36.186
  12    -120.703  -120.694   -36.205   114.270   -36.214
  13     120.719   120.710    36.264  -114.290    36.273
  14    -120.719  -120.710   -36.232   114.308   -36.241
  15     120.719   120.710    36.265  -114.290    36.274
  16    -120.724  -120.715   -36.384   114.302   -36.393
  17     120.748   120.739    36.251  -114.371    36.260
  18    -120.729  -120.720   -36.239   114.309   -36.248
  19     120.748   120.739    36.249  -114.372    36.258
  20    -120.714  -120.705   -36.146   114.266   -36.155
  21     120.705   120.696    36.325  -114.257    36.334
  22    -120.729  -120.720   -36.241   114.310   -36.250
  23     120.705   120.696    36.324  -114.257    36.333
  24    -120.714  -120.705   -36.274   114.270   -36.283
  25     120.727   120.718    36.274  -114.301    36.284
  26    -120.707  -120.698   -36.233   114.250   -36.242
  27     120.727   120.718    36.275  -114.300    36.284
  28    -120.730  -120.721   -36.436   114.313   -36.446
  29     120.712   120.703    36.178  -114.264    36.187
  30    -120.707  -120.698   -36.234   114.249   -36.243
  31     120.712   120.703    36.178  -114.264    36.187
  32    -120.710  -120.701   -36.126   114.262   -36.135
  33     120.730   120.721    36.119  -114.313    36.128
  34    -120.723  -120.714   -36.198   114.293   -36.207
  35     120.730   120.721    36.118  -114.314    36.127
  36    -120.718  -120.709   -36.174   114.286   -36.183
  37     120.720   120.711    36.274  -114.289    36.283
  38    -120.723  -120.714   -36.197   114.293   -36.206
  39     120.720   120.711    36.275  -114.289    36.284
  40    -120.722  -120.713   -36.242   114.290   -36.251
  41     120.710   120.701    36.262  -114.262    36.271
  42    -120.718  -120.709   -36.166   114.283   -36.176
  43     120.710   120.701    36.262  -114.262    36.271
  44    -120.730  -120.721   -36.149   114.320   -36.158
  45     120.715   120.706    36.194  -114.274    36.204
  46    -120.718  -120.709   -36.165   114.283   -36.174
  47     120.715   120.706    36.194  -114.274    36.203
  48    -120.723  -120.714   -36.301   114.299   -36.310
  49     120.710   120.701    36.183  -114.325    36.192
  50    -120.708  -120.699   -36.228   114.259   -36.237
  51     120.709   120.700    36.191  -114.325    36.201
  52    -120.716  -120.706   -36.269   114.283   -36.278
  53     120.724   120.715    36.127  -114.299    36.136
  54    -120.708  -120.699   -36.230   114.258   -36.239
  55     120.724   120.715    36.127  -114.299    36.136
  56    -120.718  -120.709   -36.113   114.282   -36.122
  57     120.722   120.713    36.149  -114.287    36.158
  58    -120.718  -120.709   -36.221   114.281   -36.230
  59     120.722   120.713    36.148  -114.287    36.157
  60    -120.731  -120.722   -36.268   114.312   -36.277
[...]
 203       0.997     0.994     6.222    -0.705     6.225
 204       1.063     1.060     6.152    -0.781     6.155
 205      -1.056    -1.053    -6.334     0.762    -6.338
 206      -1.070    -1.066    -6.349     0.776    -6.352
 207       1.052     1.049     6.294    -0.760     6.298
 208       1.098     1.094     6.385    -0.808     6.389
 209      -1.054    -1.050    -6.276     0.763    -6.280
 210      -1.063    -1.060    -6.210     0.778    -6.213
 211       0.997     0.994     6.221    -0.705     6.224
 212       1.064     1.060     6.150    -0.782     6.154
 213      -1.054    -1.050    -6.275     0.763    -6.279
 214      -1.063    -1.060    -6.212     0.777    -6.215
 215       1.035     1.032     6.245    -0.746     6.249
 216       1.033     1.029     6.333    -0.736     6.336
 217      10.475    10.461    17.092     0.000    17.105

 Dipolar hyperfine coupling parameters (MHz)
  ion      A_xx      A_yy      A_zz      A_xy      A_xz      A_yz
   1      -0.756    -0.521     1.277    -0.228     0.045    -0.044
   2       0.583     0.614    -1.197    -0.341    -0.023     0.009
   3      -0.755    -0.521     1.277    -0.229    -0.046     0.044
   4      -6.720    15.521    -8.802    -5.318    -0.020     0.061
   5      -0.637    -0.641     1.278    -0.252    -0.016     0.000
   6       0.581     0.616    -1.197    -0.340     0.022    -0.007
   7      -0.638    -0.640     1.278    -0.251     0.016    -0.000
   8       0.595     0.631    -1.226    -0.197    -0.000    -0.000
   9      -0.652    -0.607     1.259    -0.248     0.001     0.005
  10       0.662     0.600    -1.262    -0.259     0.080    -0.054
  11      -0.652    -0.607     1.259    -0.247    -0.001    -0.004
  12       0.590     0.674    -1.264    -0.177     0.000     0.001
  13      -0.649    -0.610     1.259    -0.263    -0.004    -0.013
  14       0.663     0.599    -1.262    -0.258    -0.081     0.055
  15      -0.648    -0.611     1.259    -0.263     0.003     0.013
  16       0.647     0.626    -1.272    -0.272    -0.000     0.000
  17      -0.647    -0.628     1.276    -0.211    -0.097     0.075
  18       0.645     0.627    -1.272    -0.242    -0.025     0.017
  19      -0.648    -0.628     1.276    -0.210     0.097    -0.074
  20       0.617     0.676    -1.294    -0.229     0.000    -0.000
  21      -0.649    -0.630     1.279    -0.276     0.030    -0.018
  22       0.645     0.627    -1.272    -0.243     0.025    -0.017
  23      -0.648    -0.630     1.278    -0.276    -0.030     0.018
  24       0.614     0.664    -1.279    -0.248    -0.001     0.001
  25      -0.635    -0.639     1.274    -0.245    -0.006    -0.012
  26       0.653     0.625    -1.278    -0.230     0.000    -0.042
  27      -0.635    -0.639     1.274    -0.246     0.006     0.012
  28       0.747     0.564    -1.311    -0.292     0.000     0.000
  29      -0.650    -0.627     1.277    -0.234     0.015     0.004
  30       0.653     0.625    -1.278    -0.230    -0.000     0.042
  31      -0.650    -0.627     1.277    -0.234    -0.015    -0.005
  32       0.664     0.592    -1.256    -0.241     0.000    -0.000
  33      -0.631    -0.635     1.265    -0.222    -0.011     0.013
  34       0.637     0.644    -1.281    -0.230    -0.016    -0.017
  35      -0.631    -0.635     1.265    -0.222     0.011    -0.013
  36       0.635     0.653    -1.288    -0.216     0.000     0.000
  37      -0.635    -0.635     1.270    -0.259     0.011    -0.009
  38       0.637     0.644    -1.281    -0.229     0.016     0.016
  39      -0.635    -0.635     1.270    -0.259    -0.011     0.009
  40       0.648     0.627    -1.276    -0.244    -0.000    -0.000
  41      -0.623    -0.639     1.262    -0.264    -0.007     0.000
  42       0.636     0.628    -1.265    -0.236    -0.007     0.005
  43      -0.623    -0.639     1.262    -0.264     0.007    -0.001
  44       0.619     0.634    -1.253    -0.234     0.000     0.000
  45      -0.626    -0.642     1.268    -0.243     0.003    -0.000
  46       0.636     0.628    -1.265    -0.236     0.007    -0.005
  47      -0.626    -0.642     1.268    -0.243    -0.004    -0.000
  48       0.632     0.649    -1.281    -0.272    -0.000    -0.000
  49      -0.827    -0.472     1.299    -0.240    -0.148     0.062
  50       0.680     0.590    -1.270    -0.246     0.011     0.018
  51      -0.830    -0.470     1.299    -0.240     0.149    -0.063
  52       0.657     0.638    -1.295    -0.238     0.001    -0.000
  53      -0.624    -0.673     1.297    -0.231     0.027     0.028
  54       0.681     0.589    -1.270    -0.247    -0.011    -0.019
  55      -0.624    -0.673     1.297    -0.231    -0.026    -0.028
  56       0.618     0.641    -1.259    -0.223    -0.001    -0.000
  57      -0.635    -0.639     1.273    -0.220    -0.009     0.006
  58       0.642     0.632    -1.275    -0.247    -0.008     0.019
  59      -0.634    -0.639     1.273    -0.220     0.009    -0.006
  60       0.643     0.640    -1.283    -0.260     0.000    -0.000
[...]
 203      -1.441    -1.411     2.853    -0.224     0.013     0.034
 204      -1.265    -1.722     2.987    -0.372     0.039     0.150
 205       1.463     1.377    -2.841    -0.253    -0.010     0.013
 206       1.350     1.504    -2.854    -0.217    -0.017    -0.079
 207      -1.355    -1.417     2.772    -0.124    -0.000     0.000
 208      -1.315    -1.385     2.700    -0.618    -0.001     0.001
 209       1.373     1.434    -2.806    -0.240    -0.041    -0.010
 210       1.356     1.519    -2.875    -0.292    -0.003     0.025
 211      -1.441    -1.412     2.853    -0.225    -0.014    -0.035
 212      -1.257    -1.732     2.989    -0.374    -0.038    -0.153
 213       1.374     1.433    -2.807    -0.241     0.041     0.009
 214       1.358     1.516    -2.874    -0.291     0.003    -0.024
 215      -1.354    -1.452     2.806    -0.295     0.000     0.000
 216      -1.449    -1.415     2.864    -0.237     0.000     0.000
 217       3.104    -4.914     1.810     0.788     0.000    -0.009

 Total hyperfine coupling parameters after diagonalization (MHz)
 (convention: |A_zz| > |A_xx| > |A_yy|)
  ion      A_xx      A_yy      A_zz     asymmetry (A_yy - A_xx)/ A_zz
   1      36.136    35.626    37.800      -0.013
   2     -35.801   -35.118   -37.255      -0.018
   3      36.138    35.626    37.801      -0.014
   4     -22.364     2.289   -23.240      -1.061
   5      35.895    35.392    37.561      -0.013
   6     -35.802   -35.121   -37.257      -0.018
   7      35.893    35.391    37.560      -0.013
   8     -35.508   -35.112   -37.149      -0.011
   9      35.807    35.310    37.447      -0.013
  10     -35.872   -35.347   -37.509      -0.014
  11      35.805    35.308    37.445      -0.013
  12     -35.764   -35.401   -37.478      -0.010
  13      35.907    35.380    37.532      -0.014
  14     -35.871   -35.346   -37.508      -0.014
  15      35.909    35.381    37.533      -0.014
  16     -36.029   -35.484   -37.665      -0.014
  17      35.825    35.410    37.544      -0.011
  18     -35.855   -35.369   -37.520      -0.013
  19      35.822    35.409    37.543      -0.011
  20     -35.739   -35.278   -37.449      -0.012
  21      35.970    35.419    37.613      -0.015
  22     -35.857   -35.371   -37.522      -0.013
  23      35.969    35.418    37.612      -0.015
  24     -35.893   -35.394   -37.562      -0.013
  25      35.892    35.401    37.558      -0.013
  26     -35.833   -35.373   -37.521      -0.012
  27      35.892    35.401    37.558      -0.013
  28     -36.096   -35.484   -37.757      -0.016
  29      35.783    35.314    37.464      -0.013
  30     -35.834   -35.373   -37.521      -0.012
  31      35.782    35.314    37.464      -0.012
  32     -35.751   -35.263   -37.391      -0.013
  33      35.717    35.273    37.393      -0.012
  34     -35.797   -35.337   -37.488      -0.012
  35      35.716    35.272    37.392      -0.012
  36     -35.755   -35.324   -37.471      -0.012
  37      35.907    35.389    37.553      -0.014
  38     -35.795   -35.336   -37.487      -0.012
  39      35.908    35.390    37.554      -0.014
  40     -35.857   -35.369   -37.527      -0.013
  41      35.904    35.376    37.533      -0.014
  42     -35.780   -35.307   -37.440      -0.013
  43      35.904    35.376    37.533      -0.014
  44     -35.765   -35.298   -37.412      -0.012
  45      35.813    35.326    37.472      -0.013
  46     -35.777   -35.305   -37.438      -0.013
  47      35.813    35.326    37.471      -0.013
  48     -35.942   -35.398   -37.590      -0.014
  49      35.832    35.240    37.505      -0.016
  50     -35.852   -35.351   -37.507      -0.013
  51      35.842    35.246    37.514      -0.016
  52     -35.868   -35.392   -37.573      -0.013
  53      35.720    35.254    37.434      -0.012
  54     -35.855   -35.353   -37.509      -0.013
  55      35.719    35.254    37.434      -0.012
  56     -35.716   -35.269   -37.381      -0.012
  57      35.742    35.301    37.431      -0.012
  58     -35.840   -35.346   -37.505      -0.013
  59      35.741    35.300    37.431      -0.012
  60     -35.895   -35.376   -37.560      -0.014
[...]
 203       5.023     4.574     9.078      -0.050
 204       5.098     4.221     9.148      -0.096
 205      -5.174    -4.661    -9.179      -0.056
 206      -5.155    -4.695    -9.208      -0.050
 207       5.039     4.784     9.069      -0.028
 208       5.657     4.420     9.089      -0.136
 209      -5.118    -4.635    -9.086      -0.053
 210      -5.078    -4.473    -9.089      -0.067
 211       5.022     4.572     9.077      -0.050
 212       5.102     4.212     9.148      -0.097
 213      -5.117    -4.633    -9.086      -0.053
 214      -5.079    -4.477    -9.090      -0.066
 215       5.145     4.547     9.055      -0.066
 216       5.142     4.667     9.200      -0.052
 217      18.915    12.114    20.285      -0.335

 Quasi-Newton relaxation of ions (Broydens 2nd method)
  g(Force)  = 0.336E-05   g(Stress)= 0.000E+00

 Reset! Starting new Quasi-Newton update for ions

 reached required accuracy - stopping structural energy minimisation
 writing wavefunctions

 total charge

[...]

 magnetization (x)

# of ion       s       p       d       tot
    1        0.018   0.018   4.568   4.603
    2       -0.017  -0.018  -4.559  -4.594
    3        0.018   0.018   4.568   4.603
    4       -0.003  -0.001  -4.151  -4.156
    5        0.018   0.018   4.569   4.604
    6       -0.017  -0.018  -4.559  -4.594
    7        0.018   0.018   4.569   4.604
    8       -0.017  -0.018  -4.568  -4.603
    9        0.018   0.018   4.568   4.604
   10       -0.018  -0.018  -4.569  -4.604
   11        0.018   0.018   4.568   4.604
   12       -0.018  -0.018  -4.568  -4.603
   13        0.018   0.018   4.569   4.604
   14       -0.018  -0.018  -4.569  -4.604
   15        0.018   0.018   4.569   4.604
   16       -0.018  -0.018  -4.569  -4.604
   17        0.018   0.018   4.570   4.605
   18       -0.018  -0.018  -4.569  -4.604
   19        0.018   0.018   4.570   4.605
   20       -0.018  -0.018  -4.568  -4.604
   21        0.018   0.018   4.568   4.603
   22       -0.018  -0.018  -4.569  -4.604
   23        0.018   0.018   4.568   4.603
   24       -0.018  -0.018  -4.568  -4.604
   25        0.018   0.018   4.569   4.604
   26       -0.018  -0.018  -4.568  -4.603
   27        0.018   0.018   4.569   4.604
   28       -0.018  -0.018  -4.569  -4.604
   29        0.018   0.018   4.568   4.604
   30       -0.018  -0.018  -4.568  -4.603
   31        0.018   0.018   4.568   4.604
   32       -0.018  -0.018  -4.568  -4.603
   33        0.018   0.018   4.569   4.604
   34       -0.018  -0.018  -4.569  -4.604
   35        0.018   0.018   4.569   4.604
   36       -0.018  -0.018  -4.569  -4.604
   37        0.018   0.018   4.569   4.604
   38       -0.018  -0.018  -4.569  -4.604
   39        0.018   0.018   4.569   4.604
   40       -0.018  -0.018  -4.569  -4.604
   41        0.018   0.018   4.568   4.604
   42       -0.018  -0.018  -4.569  -4.604
   43        0.018   0.018   4.568   4.604
   44       -0.018  -0.018  -4.569  -4.604
   45        0.018   0.018   4.568   4.604
   46       -0.018  -0.018  -4.569  -4.604
   47        0.018   0.018   4.568   4.604
   48       -0.018  -0.018  -4.569  -4.604
   49        0.018   0.018   4.569   4.604
   50       -0.018  -0.018  -4.568  -4.603
   51        0.018   0.018   4.569   4.604
   52       -0.018  -0.018  -4.568  -4.604
   53        0.018   0.018   4.569   4.604
   54       -0.018  -0.018  -4.568  -4.603
   55        0.018   0.018   4.569   4.604
   56       -0.018  -0.018  -4.569  -4.604
   57        0.018   0.018   4.569   4.604
   58       -0.018  -0.018  -4.569  -4.604
   59        0.018   0.018   4.569   4.604
   60       -0.018  -0.018  -4.569  -4.604
[...]
  203        0.002   0.019   0.000   0.021
  204        0.002   0.020   0.000   0.022
  205       -0.002  -0.020   0.000  -0.022
  206       -0.002  -0.020   0.000  -0.022
  207        0.002   0.020   0.000   0.022
  208        0.002   0.021   0.000   0.023
  209       -0.002  -0.020   0.000  -0.022
  210       -0.002  -0.020   0.000  -0.022
  211        0.002   0.018   0.000   0.021
  212        0.002   0.020   0.000   0.022
  213       -0.002  -0.020   0.000  -0.022
  214       -0.002  -0.020   0.000  -0.022
  215        0.002   0.019   0.000   0.021
  216        0.002   0.019   0.000   0.021
  217        0.187  -0.003   0.000   0.184
tot          0.209   0.121   0.440   0.770