 vasp.5.4.4.18Apr17-6-g9f103f2a35 (build Apr 24 2018 11:19:41) complex

 executed on         CrayXC-Intel date 2022.02.18  19:30:56

 INCAR:
 POTCAR:    PAW_PBE Mn_pv 02Aug2007
 POTCAR:    PAW_PBE F 08Apr2002
 POTCAR:    PAW_PBE H 15Jun2001

 POTCAR:    PAW_PBE Mn_pv 02Aug2007
   VRHFIN =Mn: 3p4s3d

   TITEL  = PAW_PBE Mn_pv 02Aug2007
   POMASS =   54.938; ZVAL   =   13.000    mass and valenz
   ENMAX  =  269.864; ENMIN  =  202.398 eV

 POTCAR:    PAW_PBE F 08Apr2002
   VRHFIN =F: s2p5

   TITEL  = PAW_PBE F 08Apr2002
   POMASS =   18.998; ZVAL   =    7.000    mass and valenz
   ENMAX  =  400.000; ENMIN  =  300.000 eV

 POTCAR:    PAW_PBE H 15Jun2001
   VRHFIN =H: ultrasoft test

   TITEL  = PAW_PBE H 15Jun2001
   POMASS =    1.000; ZVAL   =    1.000    mass and valenz
   ENMAX  =  250.000; ENMIN  =  200.000 eV

  PAW_PBE Mn_pv 02Aug2007               :
  PAW_PBE F 08Apr2002                   :
  PAW_PBE H 15Jun2001                   :

 POSCAR: Mn  F  H
  positions in direct lattice
  velocities in cartesian coordinates
 exchange correlation table for  LEXCH =       14
   RHO(1)=    0.500       N(1)  =     2000
   RHO(2)=  100.500       N(2)  =     4000

 ion  position               nearest neighbor table
   1  0.162  0.162  0.129- 217 2.01  74 2.10  73 2.10  75 2.13  79 2.14  76 2.17
   2  0.999  0.999  1.000- 203 2.09  75 2.10 116 2.12 181 2.13 169 2.14 104 2.14
   3  0.162  0.162  0.371- 217 2.01  78 2.10  77 2.10  82 2.13  79 2.14  83 2.17
   4  0.007  0.006  0.250- 217 1.98 108 2.12 104 2.12 169 2.13 173 2.13 207 2.15
   5  0.169  0.163  0.625-  81 2.10  87 2.13  80 2.13  86 2.14  82 2.14  83 2.15
   6  0.999  0.999  0.500- 211 2.09  82 2.10 112 2.11 177 2.13 173 2.14 108 2.14
   7  0.169  0.163  0.875-  85 2.10  87 2.13  84 2.13  86 2.14  75 2.14  76 2.15
   8  1.000  0.997  0.750-  86 2.11 215 2.11 112 2.13 116 2.13 177 2.14 181 2.14
   9  0.166  0.499  0.125-  89 2.10  88 2.10  91 2.12  90 2.13  94 2.13  95 2.14
  10  0.001  0.333  0.998-  90 2.10 171 2.11  84 2.13 197 2.13 185 2.14  73 2.14
  11  0.166  0.499  0.376-  93 2.10  92 2.10  99 2.12  98 2.13  94 2.13  95 2.14
  12  0.999  0.333  0.250- 175 2.10  94 2.10 189 2.13 185 2.13  73 2.14  77 2.14
  13  0.171  0.503  0.627-  96 2.11  97 2.11  99 2.12 103 2.13 102 2.14  98 2.17
  14  0.001  0.333  0.502-  98 2.10 179 2.11  80 2.13 193 2.13 189 2.14  77 2.14
  15  0.171  0.503  0.873- 100 2.11 101 2.11  91 2.12 103 2.13 102 2.14  90 2.17
  16  0.001  0.334  0.750- 183 2.12 102 2.12 193 2.14 197 2.14  84 2.14  80 2.14
  17  0.168  0.833  0.125- 105 2.10 104 2.11 111 2.13 107 2.13 106 2.13 110 2.13
  18  0.999  0.666  1.000- 106 2.11 187 2.11 213 2.13 100 2.13 201 2.13  88 2.14
  19  0.168  0.833  0.375- 109 2.10 108 2.11 115 2.13 111 2.13 114 2.13 110 2.13
  20  0.002  0.666  0.250- 110 2.10 191 2.11 205 2.12 201 2.12  88 2.13  92 2.13
  21  0.167  0.832  0.625- 113 2.10 112 2.11 119 2.11 118 2.13 115 2.14 114 2.14
  22  0.999  0.666  0.500- 114 2.11 195 2.11 209 2.13  96 2.13 205 2.13  92 2.14
  23  0.167  0.832  0.875- 117 2.10 116 2.11 119 2.11 118 2.13 107 2.14 106 2.14
  24  1.000  0.665  0.750- 118 2.10 199 2.10 209 2.13 213 2.13  96 2.13 100 2.13
  25  0.501  0.167  0.125- 122 2.10 121 2.11 120 2.11 127 2.13 123 2.13 126 2.14
  26  0.332  0.003  0.001- 164 2.07 122 2.11 107 2.12  85 2.12  74 2.13 152 2.15
  27  0.501  0.167  0.375- 130 2.10 125 2.11 124 2.11 127 2.13 131 2.13 126 2.14
  28  0.335  0.999  0.250- 126 2.11 111 2.11 156 2.11 152 2.11  78 2.13  74 2.13
  29  0.497  0.163  0.625- 129 2.10 128 2.11 134 2.12 130 2.13 135 2.14 131 2.16
  30  0.332  0.003  0.499- 160 2.07 130 2.11 115 2.12  81 2.12  78 2.13 156 2.15
  31  0.497  0.163  0.875- 133 2.10 132 2.11 134 2.12 122 2.13 135 2.14 123 2.16
  32  0.341  0.983  0.750- 119 2.12 160 2.15 164 2.15 134 2.16  85 2.24  81 2.24 166 2.33
  33  0.500  0.499  0.125- 136 2.10 137 2.11 139 2.13 143 2.14 142 2.14 138 2.14
  34  0.332  0.331  0.000-  76 2.12 138 2.12 132 2.13 120 2.13 101 2.13  89 2.13
  35  0.500  0.499  0.375- 140 2.10 141 2.11 147 2.13 143 2.14 142 2.14 146 2.14
  36  0.332  0.333  0.250- 142 2.11  79 2.11 120 2.12 124 2.12  93 2.13  89 2.13
  37  0.499  0.498  0.625- 144 2.10 145 2.11 151 2.12 150 2.14 146 2.14 147 2.14
  38  0.332  0.331  0.500-  83 2.12 146 2.12 128 2.13 124 2.13  97 2.13  93 2.13
  39  0.499  0.498  0.875- 148 2.10 149 2.11 151 2.12 150 2.14 138 2.14 139 2.14
  40  0.332  0.332  0.750- 150 2.09  87 2.10 132 2.13 128 2.13 101 2.13  97 2.13
  41  0.500  0.833  0.123- 155 2.10 153 2.11 152 2.11 154 2.14 159 2.15 158 2.15
  42  0.334  0.665  1.000-  91 2.09 154 2.10 148 2.12 117 2.12 136 2.14 105 2.14
  43  0.500  0.833  0.377- 163 2.10 157 2.11 156 2.11 162 2.14 159 2.15 158 2.15
  44  0.334  0.666  0.250- 158 2.11  95 2.12 140 2.13 136 2.13 105 2.13 109 2.13
  45  0.496  0.829  0.631- 167 2.13 162 2.13 160 2.14 161 2.14 163 2.24 216 2.28 166 2.29  47 3.15

  46  0.334  0.665  0.500-  99 2.09 162 2.10 144 2.12 113 2.12 140 2.14 109 2.14
  47  0.496  0.829  0.869- 167 2.13 154 2.13 164 2.14 165 2.14 155 2.24 166 2.28 216 2.29  45 3.15

  48  0.348  0.680  0.750- 113 2.16 148 2.16 117 2.16 144 2.16 216 2.25 166 2.25 103 2.28
  49  0.833  0.166  0.125- 168 2.10 169 2.11 170 2.12 174 2.13 171 2.14 175 2.14
  50  0.666  0.998  1.000- 155 2.09 170 2.13 212 2.13 133 2.13 121 2.14 200 2.14
  51  0.833  0.166  0.376- 172 2.10 173 2.11 178 2.12 174 2.13 179 2.14 175 2.14
  52  0.666  0.999  0.250- 159 2.10 174 2.11 200 2.13 204 2.13 125 2.13 121 2.13
  53  0.834  0.166  0.625- 177 2.10 176 2.10 182 2.13 179 2.14 183 2.14 178 2.14
  54  0.666  0.998  0.500- 163 2.09 178 2.13 208 2.13 129 2.13 125 2.14 204 2.14
  55  0.834  0.166  0.875- 181 2.10 180 2.10 182 2.13 171 2.14 183 2.14 170 2.14
  56  0.666  0.999  0.750- 167 2.09 182 2.11 212 2.13 208 2.13 129 2.13 133 2.13
  57  0.834  0.499  0.125- 184 2.10 185 2.10 187 2.13 190 2.13 186 2.13 191 2.14
  58  0.667  0.332  1.000- 123 2.10 186 2.11 149 2.11 180 2.13 168 2.13 137 2.14
  59  0.834  0.499  0.375- 188 2.10 189 2.10 195 2.13 190 2.13 194 2.13 191 2.14
  60  0.668  0.333  0.250- 190 2.10 127 2.10 137 2.13 141 2.13 172 2.13 168 2.13
  61  0.830  0.501  0.626- 192 2.10 198 2.13 199 2.13 193 2.14 194 2.14 195 2.14
  62  0.667  0.332  0.500- 131 2.10 194 2.11 145 2.12 176 2.13 172 2.13 141 2.14
  63  0.830  0.501  0.874- 196 2.10 198 2.13 199 2.13 197 2.14 186 2.14 187 2.14
  64  0.664  0.332  0.750- 135 2.11 198 2.11 149 2.13 145 2.13 180 2.14 176 2.14
  65  0.837  0.835  0.126- 200 2.11 201 2.11 202 2.12 203 2.12 206 2.13 207 2.14
  66  0.670  0.665  0.001- 165 2.07 202 2.12 196 2.12 184 2.13 139 2.13 153 2.15
  67  0.837  0.835  0.374- 204 2.11 205 2.11 210 2.12 211 2.12 206 2.13 207 2.14
  68  0.667  0.668  0.250- 153 2.11 157 2.11 143 2.12 206 2.12 184 2.13 188 2.13
  69  0.830  0.830  0.625- 208 2.10 209 2.11 214 2.12 210 2.13 215 2.15 211 2.16
  70  0.670  0.665  0.499- 161 2.07 210 2.12 192 2.12 188 2.13 147 2.13 157 2.15
  71  0.830  0.830  0.875- 212 2.10 213 2.11 214 2.12 202 2.13 215 2.15 203 2.16
  72  0.650  0.674  0.750- 151 2.12 165 2.15 161 2.15 214 2.16 192 2.24 196 2.24 216 2.32
  73  0.064  0.267  0.125-   1 2.10  12 2.14  10 2.14
  74  0.265  0.064  0.128-   1 2.10  26 2.13  28 2.13
  75  0.102  0.100  0.000-   2 2.10   1 2.13   7 2.14
  76  0.231  0.228  0.004-  34 2.12   7 2.15   1 2.17
  77  0.064  0.267  0.375-   3 2.10  12 2.14  14 2.14
  78  0.265  0.064  0.372-   3 2.10  30 2.13  28 2.13
  79  0.230  0.231  0.250-  36 2.11   3 2.14   1 2.14
  80  0.066  0.267  0.626-  14 2.13   5 2.13  16 2.14
  81  0.269  0.061  0.629-   5 2.10  30 2.12  32 2.24
  82  0.102  0.100  0.500-   6 2.10   3 2.13   5 2.14
  83  0.231  0.228  0.496-  38 2.12   5 2.15   3 2.17
  84  0.066  0.267  0.874-  10 2.13   7 2.13  16 2.14
  85  0.269  0.061  0.872-   7 2.10  26 2.12  32 2.24
  86  0.100  0.100  0.750-   8 2.11   5 2.14   7 2.14
  87  0.231  0.231  0.750-  40 2.10   7 2.13   5 2.13
  88  0.064  0.600  0.124-   9 2.10  20 2.13  18 2.14
  89  0.267  0.397  0.125-   9 2.10  36 2.13  34 2.13
  90  0.103  0.435  0.997-  10 2.10   9 2.13  15 2.17
  91  0.232  0.565  0.002-  42 2.09   9 2.12  15 2.12
  92  0.064  0.600  0.376-  11 2.10  20 2.13  22 2.14
  93  0.267  0.397  0.375-  11 2.10  36 2.13  38 2.13
  94  0.101  0.434  0.250-  12 2.10  11 2.13   9 2.13
  95  0.231  0.564  0.250-  44 2.12   9 2.14  11 2.14
  96  0.066  0.602  0.625-  13 2.11  22 2.13  24 2.13
  97  0.268  0.397  0.624-  13 2.11  38 2.13  40 2.13
  98  0.103  0.435  0.503-  14 2.10  11 2.13  13 2.17
  99  0.232  0.565  0.498-  46 2.09  11 2.12  13 2.12
 100  0.066  0.602  0.876-  15 2.11  18 2.13  24 2.13
 101  0.268  0.397  0.876-  15 2.11  34 2.13  40 2.13
 102  0.104  0.437  0.750-  16 2.12  13 2.14  15 2.14
 103  0.238  0.570  0.750-  13 2.13  15 2.13  48 2.28
 104  0.067  0.936  0.126-  17 2.11   4 2.12   2 2.14
 105  0.269  0.731  0.125-  17 2.10  44 2.13  42 2.14
 106  0.102  0.768  0.001-  18 2.11  17 2.13  23 2.14
 107  0.232  0.898  0.999-  26 2.12  17 2.13  23 2.14
[...]
 203  0.898  0.899  0.999-   2 2.09  65 2.12  71 2.16
 204  0.733  0.935  0.375-  67 2.11  52 2.13  54 2.14
 205  0.938  0.733  0.374-  67 2.11  20 2.12  22 2.13
 206  0.771  0.769  0.250-  68 2.12  65 2.13  67 2.13
 207  0.903  0.903  0.250-  67 2.14  65 2.14   4 2.15
 208  0.733  0.935  0.625-  69 2.10  54 2.13  56 2.13
 209  0.935  0.731  0.625-  69 2.11  22 2.13  24 2.13
 210  0.775  0.765  0.495-  70 2.12  67 2.12  69 2.13
 211  0.898  0.899  0.501-   6 2.09  67 2.12  69 2.16
 212  0.733  0.935  0.875-  71 2.10  50 2.13  56 2.13
 213  0.935  0.731  0.875-  71 2.11  18 2.13  24 2.13
 214  0.765  0.766  0.750-  71 2.12  69 2.12  72 2.16
 215  0.897  0.896  0.750-   8 2.11  71 2.15  69 2.15
 216  0.497  0.716  0.750-  48 2.25  45 2.28  47 2.29  72 2.32
 217  0.102  0.103  0.250-   4 1.98   1 2.01   3 2.01

IMPORTANT INFORMATION: All symmetrisations will be switched off!
NOSYMM: (Re-)initialisation of all symmetry stuff for point group C_1.

 KPOINTS: KPOINTS created by Atomic Simulation Env

Automatic generation of k-mesh.
Space group operators:
 irot       det(A)        alpha          n_x          n_y          n_z        tau_x        tau_y        tau_z
    1     1.000000     0.000000     1.000000     0.000000     0.000000     0.000000     0.000000     0.000000

 Subroutine IBZKPT returns following result:

 Found      4 irreducible k-points:

 Following reciprocal coordinates:
            Coordinates               Weight
  0.250000  0.250000  0.250000      2.000000
 -0.250000  0.250000  0.250000      2.000000
  0.250000 -0.250000  0.250000      2.000000
 -0.250000 -0.250000  0.250000      2.000000

 Following cartesian coordinates:
            Coordinates               Weight
  0.017066  0.017066  0.018935      2.000000
 -0.017066  0.017066  0.018935      2.000000
  0.017066 -0.017066  0.018935      2.000000
 -0.017066 -0.017066  0.018935      2.000000

 SYSTEM =  unknown system
 POSCAR =  Mn  F  H

 Startparameter for this run:
   NWRITE =      2    write-flag & timer
   PREC   = normal    normal or accurate (medium, high low for compatibility)
   ISTART =      0    job   : 0-new  1-cont  2-samecut
[...]
   3     121.052   121.041    42.797  -115.353    42.808
   4    -120.968  -120.958   -38.780   115.311   -38.790
   5     121.928   121.919    37.961  -116.158    37.971
   6    -121.863  -121.854   -38.000   115.942   -38.009
   7     121.928   121.919    37.961  -116.157    37.971
   8    -121.926  -121.917   -37.672   116.106   -37.681
   9     121.885   121.875    37.622  -115.990    37.632
  10    -121.907  -121.898   -37.488   116.071   -37.498
  11     121.885   121.875    37.622  -115.990    37.632
  12    -121.886  -121.877   -37.713   116.005   -37.722
  13     121.911   121.902    37.733  -116.087    37.742
  14    -121.907  -121.898   -37.488   116.071   -37.498
  15     121.911   121.902    37.733  -116.087    37.742
  16    -121.944  -121.935   -37.265   116.171   -37.274
  17     121.892   121.882    37.582  -116.012    37.591
  18    -121.901  -121.892   -37.576   116.032   -37.585
  19     121.892   121.882    37.582  -116.012    37.592
  20    -121.879  -121.870   -37.649   115.965   -37.659
  21     121.882   121.873    37.961  -116.008    37.971
  22    -121.902  -121.893   -37.578   116.032   -37.587
  23     121.882   121.873    37.967  -116.009    37.976
  24    -121.885  -121.875   -37.627   115.981   -37.636
  25     121.862   121.853    37.535  -115.918    37.544
  26    -121.814  -121.805   -37.487   115.832   -37.496
  27     121.863   121.853    37.531  -115.918    37.540
  28    -121.868  -121.859   -37.040   115.925   -37.050
  29     121.924   121.914    37.801  -116.097    37.811
  30    -121.815  -121.806   -37.475   115.834   -37.484
  31     121.924   121.915    37.807  -116.099    37.816
  32    -122.133  -122.125   -37.393   116.692   -37.402
  33     121.900   121.891    37.532  -116.041    37.541
  34    -121.922  -121.913   -37.736   116.098   -37.745
  35     121.900   121.891    37.532  -116.041    37.541
  36    -121.868  -121.859   -37.186   115.969   -37.195
  37     121.889   121.880    37.938  -116.034    37.947
  38    -121.922  -121.913   -37.733   116.097   -37.743
  39     121.889   121.880    37.932  -116.034    37.941
  40    -121.883  -121.874   -37.859   115.984   -37.868
  41     121.914   121.905    37.517  -116.103    37.526
  42    -121.852  -121.842   -37.470   115.895   -37.480
  43     121.914   121.905    37.517  -116.103    37.526
  44    -121.902  -121.892   -37.542   116.032   -37.551
  45     121.965   121.956    38.207  -116.378    38.216
  46    -121.852  -121.842   -37.470   115.895   -37.480
  47     121.965   121.956    38.210  -116.377    38.220
  48    -122.130  -122.122   -38.498   116.797   -38.506
  49     121.893   121.884    37.588  -116.016    37.597
  50    -121.890  -121.881   -37.712   116.028   -37.721
  51     121.893   121.884    37.588  -116.017    37.597
  52    -121.889  -121.880   -37.586   116.006   -37.596
  53     121.900   121.891    37.607  -116.035    37.616
  54    -121.890  -121.881   -37.712   116.028   -37.722
  55     121.900   121.891    37.607  -116.035    37.616
  56    -121.903  -121.893   -37.286   116.042   -37.295
  57     121.883   121.873    37.688  -115.988    37.698
  58    -121.883  -121.873   -37.660   115.979   -37.669
  59     121.883   121.873    37.689  -115.988    37.698
  60    -121.878  -121.869   -37.560   115.966   -37.570
[...]
 203       0.749     0.747     5.313    -0.496     5.316
 204      -0.823    -0.821    -5.431     0.570    -5.434
 205      -0.859    -0.856    -5.399     0.611    -5.402
 206       0.900     0.897     5.599    -0.643     5.602
 207       0.904     0.901     5.866    -0.635     5.870
 208      -0.846    -0.844    -5.532     0.588    -5.534
 209      -0.883    -0.880    -5.522     0.629    -5.525
 210       0.862     0.859     5.166    -0.628     5.169
 211       0.749     0.746     5.312    -0.496     5.314
 212      -0.846    -0.843    -5.529     0.588    -5.532
 213      -0.883    -0.880    -5.521     0.628    -5.524
 214       1.057     1.053     5.823    -0.799     5.827
 215       0.815     0.813     5.424    -0.561     5.427
 216       0.116     0.116    -0.531    -0.159    -0.531
 217      -0.256    -0.257    -0.417     0.000    -0.417

 Dipolar hyperfine coupling parameters (MHz)
  ion      A_xx      A_yy      A_zz      A_xy      A_xz      A_yz
   1      -0.482    -0.459     0.941    -0.630     0.502     0.504
   2       0.667     0.641    -1.308    -0.360    -0.042    -0.112
   3      -0.482    -0.460     0.942    -0.630    -0.501    -0.505
   4       0.917     0.912    -1.829     0.850    -0.000     0.000
   5      -0.688    -0.666     1.354    -0.354     0.085    -0.013
   6       0.667     0.641    -1.308    -0.360     0.041     0.111
   7      -0.688    -0.666     1.354    -0.354    -0.085     0.012
   8       0.748     0.609    -1.357    -0.312    -0.000    -0.000
   9      -0.668    -0.680     1.348    -0.313    -0.042    -0.044
  10       0.656     0.653    -1.309    -0.272     0.065     0.007
  11      -0.668    -0.680     1.348    -0.313     0.042     0.044
  12       0.697     0.675    -1.372    -0.364     0.000    -0.000
  13      -0.662    -0.650     1.312    -0.233     0.038     0.035
  14       0.656     0.654    -1.309    -0.272    -0.065    -0.008
  15      -0.662    -0.650     1.312    -0.233    -0.037    -0.036
  16       0.667     0.665    -1.332    -0.191     0.000    -0.000
  17      -0.708    -0.651     1.359    -0.288     0.000     0.009
  18       0.680     0.657    -1.337    -0.285    -0.032    -0.012
  19      -0.708    -0.651     1.360    -0.287     0.000    -0.009
  20       0.731     0.638    -1.369    -0.285     0.000    -0.000
  21      -0.852    -0.532     1.384    -0.306    -0.057     0.065
  22       0.679     0.657    -1.337    -0.285     0.032     0.012
  23      -0.854    -0.530     1.383    -0.307     0.057    -0.066
  24       0.733     0.632    -1.365    -0.323    -0.000     0.000
  25      -0.624    -0.747     1.371    -0.244     0.089     0.043
  26       0.516     0.801    -1.317    -0.126     0.188    -0.098
  27      -0.624    -0.746     1.371    -0.244    -0.087    -0.042
  28       0.652     0.690    -1.342    -0.180     0.000     0.000
  29      -0.586    -0.771     1.357    -0.288    -0.023    -0.069
  30       0.518     0.798    -1.316    -0.126    -0.186     0.099
  31      -0.585    -0.772     1.357    -0.289     0.022     0.070
  32       0.575     0.508    -1.083    -0.177    -0.001    -0.003
  33      -0.654    -0.679     1.334    -0.279    -0.002    -0.001
  34       0.669     0.686    -1.355    -0.267     0.017     0.013
  35      -0.654    -0.679     1.333    -0.279     0.001     0.001
  36       0.659     0.754    -1.413    -0.195     0.000    -0.000
  37      -0.518    -0.842     1.359    -0.304     0.078    -0.046
  38       0.668     0.686    -1.355    -0.267    -0.017    -0.014
  39      -0.520    -0.840     1.360    -0.303    -0.078     0.046
  40       0.636     0.741    -1.377    -0.363    -0.000     0.000
  41      -0.668    -0.666     1.334    -0.291    -0.065    -0.072
  42       0.652     0.654    -1.306    -0.324     0.055     0.054
  43      -0.670    -0.665     1.334    -0.291     0.065     0.072
  44       0.664     0.661    -1.325    -0.275    -0.000     0.000
  45      -0.688    -0.686     1.375    -0.587     0.195     0.192
  46       0.654     0.652    -1.306    -0.324    -0.056    -0.053
  47      -0.673    -0.702     1.375    -0.587    -0.188    -0.200
  48       0.504     0.519    -1.023     0.244     0.000    -0.000
  49      -0.653    -0.678     1.331    -0.291     0.007    -0.005
  50       0.656     0.661    -1.317    -0.352     0.013    -0.008
  51      -0.653    -0.678     1.331    -0.291    -0.008     0.006
  52       0.672     0.668    -1.340    -0.297     0.000    -0.000
  53      -0.675    -0.654     1.329    -0.310    -0.015    -0.005
  54       0.655     0.662    -1.317    -0.352    -0.014     0.008
  55      -0.675    -0.654     1.329    -0.310     0.015     0.005
  56       0.678     0.673    -1.351    -0.334    -0.001     0.001
  57      -0.667    -0.668     1.335    -0.331     0.009    -0.010
  58       0.665     0.680    -1.345    -0.297    -0.087    -0.015
  59      -0.667    -0.668     1.335    -0.332    -0.008     0.009
  60       0.639     0.689    -1.328    -0.319     0.000     0.000
[...]
 203      -1.359    -1.255     2.614    -0.252     0.016     0.023
 204       1.270     1.290    -2.561    -0.236    -0.029     0.021
 205       1.377     1.226    -2.604    -0.280     0.054    -0.031
 206      -1.301    -1.185     2.486    -0.141     0.000     0.000
 207      -1.235    -1.133     2.368    -0.350     0.001     0.000
 208       1.049     1.474    -2.523    -0.244    -0.006    -0.015
 209       1.384     1.187    -2.570    -0.211    -0.052    -0.017
 210      -1.751    -0.991     2.741    -0.363    -0.116    -0.037
 211      -1.360    -1.254     2.614    -0.252    -0.017    -0.023
 212       1.050     1.474    -2.524    -0.245     0.006     0.015
 213       1.383     1.187    -2.570    -0.211     0.052     0.016
 214      -1.560    -0.936     2.496    -0.223     0.000    -0.001
 215      -1.285    -1.225     2.510    -0.138    -0.000    -0.000
 216      -5.989     3.461     2.528     0.192     0.003    -0.003
 217      -1.426    -1.606     3.033    -0.394     0.000    -0.001

 Total hyperfine coupling parameters after diagonalization (MHz)
 (convention: |A_zz| > |A_xx| > |A_yy|)
  ion      A_xx      A_yy      A_zz     asymmetry (A_yy - A_xx)/ A_zz
   1      42.969    41.485    43.974      -0.034
   2     -37.707   -36.993   -39.324      -0.018
   3      42.968    41.484    43.973      -0.034
   4     -38.725   -37.026   -40.619      -0.042
   5      37.645    36.939    39.329      -0.018
   6     -37.708   -36.994   -39.325      -0.018
   7      37.645    36.938    39.329      -0.018
   8     -37.322   -36.684   -39.038      -0.016
   9      37.270    36.643    38.981      -0.016
  10     -37.114   -36.570   -38.809      -0.014
  11      37.270    36.643    38.981      -0.016
  12     -37.401   -36.672   -39.094      -0.019
  13      37.318    36.852    39.056      -0.012
  14     -37.114   -36.570   -38.809      -0.014
  15      37.318    36.852    39.056      -0.012
  16     -36.798   -36.417   -38.605      -0.010
  17      37.200    36.622    38.950      -0.015
  18     -37.201   -36.632   -38.922      -0.015
  19      37.201    36.623    38.951      -0.015
  20     -37.262   -36.686   -39.028      -0.015
  21      37.620    36.933    39.359      -0.017
  22     -37.204   -36.634   -38.925      -0.015
  23      37.627    36.938    39.364      -0.018
  24     -37.281   -36.627   -39.001      -0.017
  25      37.109    36.603    38.920      -0.013
  26     -37.018   -36.636   -38.836      -0.010
  27      37.105    36.599    38.915      -0.013
  28     -36.560   -36.197   -38.392      -0.009
  29      37.434    36.828    39.170      -0.015
  30     -37.004   -36.626   -38.822      -0.010
  31      37.440    36.832    39.175      -0.016
  32     -37.040   -36.680   -38.485      -0.009
  33      37.154    36.595    38.875      -0.014
  34     -37.334   -36.800   -39.100      -0.014
  35      37.154    36.595    38.875      -0.014
  36     -36.690   -36.288   -38.608      -0.010
  37      37.607    36.923    39.312      -0.017
  38     -37.332   -36.799   -39.098      -0.014
  39      37.599    36.919    39.306      -0.017
  40     -37.547   -36.813   -39.245      -0.019
  41      37.150    36.564    38.865      -0.015
  42     -37.147   -36.502   -38.789      -0.017
  43      37.150    36.564    38.865      -0.015
  44     -37.164   -36.614   -38.876      -0.014
  45      38.116    36.914    39.619      -0.030
  46     -37.147   -36.502   -38.789      -0.017
  47      38.119    36.917    39.623      -0.030
  48     -38.239   -37.751   -39.530      -0.012
  49      37.223    36.640    38.929      -0.015
  50     -37.415   -36.711   -39.039      -0.018
  51      37.223    36.640    38.929      -0.015
  52     -37.223   -36.629   -38.936      -0.015
  53      37.262    36.641    38.945      -0.016
  54     -37.415   -36.711   -39.039      -0.018
  55      37.262    36.641    38.945      -0.016
  56     -36.954   -36.285   -38.646      -0.017
  57      37.362    36.699    39.033      -0.017
  58     -37.290   -36.699   -39.019      -0.015
  59      37.363    36.699    39.033      -0.017
  60     -37.225   -36.586   -38.898      -0.016
[...]
 203       4.266     3.752     7.930      -0.065
 204      -4.389    -3.917    -7.995      -0.059
 205      -4.390    -3.809    -8.006      -0.073
 206       4.511     4.207     8.088      -0.038
 207       5.040     4.332     8.237      -0.086
 208      -4.596    -3.949    -8.058      -0.080
 209      -4.472    -4.007    -8.096      -0.057
 210       4.324     3.270     7.914      -0.133
 211       4.264     3.750     7.929      -0.065
 212      -4.594    -3.946    -8.056      -0.080
 213      -4.471    -4.006    -8.095      -0.057
 214       4.963     4.195     8.323      -0.092
 215       4.313     4.030     7.937      -0.036
 216       2.934     1.996    -6.525       0.144
 217      -2.337    -1.529     2.616       0.309

 Quasi-Newton relaxation of ions (Broydens 2nd method)
  g(Force)  = 0.205E-04   g(Stress)= 0.000E+00

 Reset! Starting new Quasi-Newton update for ions

 reached required accuracy - stopping structural energy minimisation
 writing wavefunctions

 total charge

[...]

 magnetization (x)

# of ion       s       p       d       tot
    1        0.021   0.020   4.601   4.642
    2       -0.019  -0.019  -4.627  -4.664
    3        0.021   0.020   4.601   4.642
    4       -0.019  -0.019  -4.599  -4.636
    5        0.019   0.018   4.630   4.667
    6       -0.019  -0.019  -4.627  -4.664
    7        0.019   0.018   4.630   4.667
    8       -0.019  -0.018  -4.629  -4.666
    9        0.018   0.019   4.628   4.665
   10       -0.018  -0.018  -4.629  -4.666
   11        0.018   0.019   4.628   4.665
   12       -0.018  -0.019  -4.628  -4.665
   13        0.019   0.019   4.629   4.666
   14       -0.018  -0.018  -4.629  -4.666
   15        0.019   0.019   4.629   4.666
   16       -0.018  -0.018  -4.630  -4.667
   17        0.018   0.019   4.628   4.665
   18       -0.018  -0.019  -4.628  -4.665
   19        0.018   0.019   4.628   4.665
   20       -0.018  -0.019  -4.627  -4.664
   21        0.019   0.019   4.628   4.665
   22       -0.018  -0.019  -4.628  -4.665
   23        0.019   0.019   4.628   4.665
   24       -0.018  -0.019  -4.627  -4.664
   25        0.018   0.019   4.626   4.664
   26       -0.018  -0.019  -4.624  -4.662
   27        0.018   0.019   4.626   4.664
   28       -0.018  -0.019  -4.627  -4.663
   29        0.019   0.019   4.629   4.666
   30       -0.018  -0.019  -4.624  -4.662
   31        0.019   0.019   4.629   4.666
   32       -0.019  -0.019  -4.638  -4.675
   33        0.018   0.018   4.628   4.665
   34       -0.019  -0.018  -4.629  -4.666
   35        0.018   0.018   4.628   4.665
   36       -0.018  -0.018  -4.627  -4.663
   37        0.019   0.019   4.628   4.665
   38       -0.019  -0.018  -4.629  -4.666
   39        0.019   0.019   4.628   4.665
   40       -0.019  -0.019  -4.627  -4.665
   41        0.018   0.018   4.629   4.666
   42       -0.018  -0.019  -4.626  -4.663
   43        0.018   0.018   4.629   4.666
   44       -0.018  -0.019  -4.628  -4.665
   45        0.019   0.018   4.632   4.669
   46       -0.018  -0.019  -4.626  -4.663
   47        0.019   0.018   4.632   4.669
   48       -0.019  -0.019  -4.639  -4.677
   49        0.018   0.019   4.628   4.665
   50       -0.018  -0.019  -4.628  -4.665
   51        0.018   0.019   4.628   4.665
   52       -0.018  -0.019  -4.628  -4.665
   53        0.018   0.018   4.628   4.665
   54       -0.018  -0.019  -4.628  -4.665
   55        0.018   0.018   4.628   4.665
   56       -0.018  -0.018  -4.628  -4.665
   57        0.018   0.019   4.627   4.665
   58       -0.018  -0.019  -4.627  -4.665
   59        0.018   0.019   4.627   4.665
   60       -0.018  -0.019  -4.627  -4.664
[...]
  203        0.002   0.013   0.000   0.015
  204       -0.002  -0.015   0.000  -0.017
  205       -0.002  -0.016   0.000  -0.017
  206        0.002   0.016   0.000   0.018
  207        0.002   0.016   0.000   0.018
  208       -0.002  -0.015   0.000  -0.017
  209       -0.002  -0.016   0.000  -0.018
  210        0.002   0.016   0.000   0.018
  211        0.002   0.013   0.000   0.015
  212       -0.002  -0.015   0.000  -0.017
  213       -0.002  -0.016   0.000  -0.018
  214        0.002   0.020   0.000   0.022
  215        0.002   0.015   0.000   0.016
  216       -0.000   0.003   0.000   0.003
  217       -0.005   0.001   0.000  -0.004
tot         -0.000  -0.014  -0.022  -0.036