 vasp.5.4.4.18Apr17-6-g9f103f2a35 (build Apr 24 2018 11:19:41) complex

 executed on         CrayXC-Intel date 2021.08.20  15:50:07

 INCAR:
 POTCAR:    PAW_PBE Mn_pv 02Aug2007
 POTCAR:    PAW_PBE F 08Apr2002
 POTCAR:    PAW_PBE H 15Jun2001

 POTCAR:    PAW_PBE Mn_pv 02Aug2007
   VRHFIN =Mn: 3p4s3d

   TITEL  = PAW_PBE Mn_pv 02Aug2007
   POMASS =   54.938; ZVAL   =   13.000    mass and valenz
   ENMAX  =  269.864; ENMIN  =  202.398 eV

 POTCAR:    PAW_PBE F 08Apr2002
   VRHFIN =F: s2p5

   TITEL  = PAW_PBE F 08Apr2002
   POMASS =   18.998; ZVAL   =    7.000    mass and valenz
   ENMAX  =  400.000; ENMIN  =  300.000 eV

 POTCAR:    PAW_PBE H 15Jun2001
   VRHFIN =H: ultrasoft test

   TITEL  = PAW_PBE H 15Jun2001
   POMASS =    1.000; ZVAL   =    1.000    mass and valenz
   ENMAX  =  250.000; ENMIN  =  200.000 eV

  PAW_PBE Mn_pv 02Aug2007               :
  PAW_PBE F 08Apr2002                   :
  PAW_PBE H 15Jun2001                   :

 POSCAR: Mn  F  H
  positions in direct lattice
  velocities in cartesian coordinates
 exchange correlation table for  LEXCH =       14
   RHO(1)=    0.500       N(1)  =     2000
   RHO(2)=  100.500       N(2)  =     4000

 ion  position               nearest neighbor table
   1  0.166  0.170  0.126-  73 2.10  74 2.11  80 2.12  76 2.13  79 2.13  75 2.14
   2  0.006  1.000  0.000- 204 2.12  75 2.13 117 2.13 105 2.13 170 2.14 182 2.14
   3  0.166  0.167  0.375-  77 2.10  78 2.11  80 2.13  83 2.13  84 2.13  79 2.13
   4  0.000  0.000  0.250- 208 2.10  79 2.11 170 2.13 174 2.13 109 2.13 105 2.14
   5  0.166  0.167  0.625-  81 2.10  82 2.11  88 2.13  83 2.13  84 2.13  87 2.13
   6  0.000  1.000  0.500- 212 2.10  83 2.10 178 2.13 174 2.13 109 2.13 113 2.13
   7  0.166  0.170  0.874-  85 2.10  86 2.11  88 2.12  76 2.13  87 2.13  75 2.14
   8  0.000  0.000  0.750- 216 2.10  87 2.11 182 2.13 178 2.13 113 2.13 117 2.14
   9  0.167  0.500  0.125-  90 2.11  89 2.11  92 2.13  91 2.13  95 2.13  96 2.13
  10  1.000  0.334  0.000- 172 2.10  91 2.10  73 2.13  85 2.13 198 2.13 186 2.13
  11  0.167  0.500  0.375-  94 2.10  93 2.10  96 2.13  95 2.13  99 2.13 100 2.13
  12  0.999  0.335  0.251-  95 2.10 176 2.11  73 2.12 190 2.12 186 2.13  77 2.14
  13  0.167  0.500  0.625-  98 2.10  97 2.10 103 2.13 104 2.13 100 2.13  99 2.13
  14  1.000  0.333  0.500-  99 2.10 180 2.10  81 2.13  77 2.13 190 2.13 194 2.13
  15  0.167  0.500  0.875- 101 2.11 102 2.11  92 2.13  91 2.13 103 2.13 104 2.13
  16  0.999  0.335  0.749- 103 2.10 184 2.11  85 2.12 194 2.12 198 2.13  81 2.14
  17  0.167  0.830  0.126- 106 2.10 105 2.11 111 2.12 107 2.13 112 2.13 108 2.14
  18  0.999  0.666  0.000- 188 2.10 107 2.10 214 2.13 202 2.13 101 2.13  89 2.13
  19  0.167  0.833  0.375- 110 2.10 109 2.11 111 2.13 116 2.13 115 2.13 112 2.13
  20  1.000  0.666  0.250- 192 2.10 111 2.10  93 2.13 202 2.13 206 2.13  89 2.13
  21  0.167  0.833  0.625- 114 2.10 113 2.11 119 2.13 116 2.13 115 2.13 120 2.13
  22  1.000  0.667  0.500- 196 2.11 115 2.11  93 2.13  97 2.13 206 2.13 210 2.13
  23  0.167  0.830  0.874- 118 2.10 117 2.11 119 2.12 107 2.13 120 2.13 108 2.14
  24  1.000  0.666  0.750- 200 2.10 119 2.10  97 2.13 214 2.13 210 2.13 101 2.13
  25  0.499  0.166  0.125- 121 2.10 122 2.10 127 2.13 124 2.13 123 2.14 128 2.14
  26  0.328  0.000  0.000- 123 2.12 108 2.13  74 2.13  86 2.13 153 2.14 165 2.14
  27  0.500  0.167  0.375- 125 2.10 126 2.10 128 2.13 132 2.13 127 2.13 131 2.13
  28  0.333  1.000  0.250- 127 2.10 112 2.11 153 2.13 157 2.13  78 2.13  74 2.13
  29  0.500  0.167  0.625- 129 2.10 130 2.10 136 2.13 132 2.13 135 2.13 131 2.13
  30  0.333  0.000  0.500- 131 2.10 116 2.10 157 2.13 161 2.13  82 2.13  78 2.13
  31  0.499  0.165  0.875- 133 2.10 134 2.10 135 2.13 124 2.13 123 2.14 136 2.14
  32  0.333  1.000  0.750- 135 2.10 120 2.11 165 2.13 161 2.13  82 2.13  86 2.13
  33  0.501  0.500  0.125- 137 2.10 138 2.10 140 2.13 144 2.13 139 2.13 143 2.13
  34  0.334  0.334  0.000- 139 2.10  76 2.10 133 2.13 121 2.13  90 2.13 102 2.13
  35  0.501  0.500  0.375- 142 2.10 141 2.10 143 2.13 148 2.13 147 2.13 144 2.13
  36  0.334  0.334  0.250- 143 2.10  80 2.10  94 2.13 121 2.13 125 2.13  90 2.13
  37  0.501  0.500  0.625- 146 2.10 145 2.10 151 2.13 148 2.13 147 2.13 152 2.13
  38  0.333  0.333  0.500- 147 2.11  84 2.11  94 2.13  98 2.13 129 2.13 125 2.13
  39  0.501  0.500  0.875- 149 2.10 150 2.10 140 2.13 152 2.13 139 2.13 151 2.13
  40  0.334  0.334  0.750- 151 2.10  88 2.10  98 2.13 133 2.13 129 2.13 102 2.13
  41  0.499  0.834  0.125- 153 2.11 154 2.11 156 2.13 155 2.13 159 2.13 160 2.13
  42  0.333  0.666  0.000- 155 2.10  92 2.10 118 2.13 106 2.13 137 2.13 149 2.13
  43  0.500  0.833  0.375- 158 2.10 157 2.10 163 2.13 160 2.13 164 2.13 159 2.13
  44  0.334  0.665  0.251-  96 2.10 159 2.11 106 2.12 141 2.12 137 2.13 110 2.14
  45  0.500  0.833  0.625- 162 2.10 161 2.10 163 2.13 168 2.13 164 2.13 167 2.13
  46  0.333  0.667  0.500- 100 2.10 163 2.10 114 2.13 110 2.13 141 2.13 145 2.13
  47  0.499  0.834  0.875- 165 2.11 166 2.11 156 2.13 155 2.13 167 2.13 168 2.13
  48  0.334  0.665  0.749- 104 2.10 167 2.11 118 2.12 145 2.12 149 2.13 114 2.14
  49  0.834  0.166  0.125- 170 2.11 169 2.11 171 2.13 172 2.13 176 2.13 175 2.13
  50  0.667  1.000  0.000- 156 2.10 171 2.10 134 2.13 201 2.13 213 2.13 122 2.13
  51  0.833  0.167  0.375- 173 2.10 174 2.10 180 2.13 175 2.13 179 2.13 176 2.13
  52  0.667  1.000  0.250- 160 2.10 175 2.10 205 2.13 126 2.13 122 2.13 201 2.13
  53  0.833  0.167  0.625- 177 2.10 178 2.10 180 2.13 183 2.13 179 2.13 184 2.13
  54  0.667  1.000  0.500- 179 2.10 164 2.10 205 2.13 130 2.13 126 2.13 209 2.13
  55  0.834  0.166  0.875- 182 2.11 181 2.11 171 2.13 172 2.13 184 2.13 183 2.13
  56  0.667  1.000  0.750- 183 2.10 168 2.10 209 2.13 130 2.13 134 2.13 213 2.13
  57  0.832  0.500  0.125- 186 2.10 185 2.10 187 2.13 191 2.13 188 2.13 192 2.13
  58  0.667  0.332  0.000- 187 2.11 124 2.11 181 2.13 169 2.13 150 2.13 138 2.13
  59  0.833  0.500  0.375- 189 2.10 190 2.10 192 2.13 195 2.13 196 2.13 191 2.13
  60  0.667  0.332  0.250- 128 2.10 191 2.11 138 2.13 173 2.13 169 2.13 142 2.13
[...]
 202  0.935  0.732  0.125-  65 2.10  20 2.13  18 2.13
 203  0.769  0.769  0.000-  66 2.11  65 2.13  71 2.13
 204  0.902  0.899  0.000-   2 2.12  71 2.14  65 2.14
 205  0.732  0.935  0.375-  67 2.10  52 2.13  54 2.13
 206  0.935  0.732  0.375-  67 2.10  22 2.13  20 2.13
 207  0.768  0.769  0.249-  68 2.10  67 2.13  65 2.14
 208  0.899  0.899  0.251-   4 2.10  65 2.13  67 2.13
 209  0.732  0.935  0.625-  69 2.10  56 2.13  54 2.13
 210  0.935  0.732  0.625-  69 2.10  22 2.13  24 2.13
 211  0.768  0.768  0.500-  70 2.10  67 2.13  69 2.13
 212  0.898  0.898  0.500-   6 2.10  69 2.13  67 2.13
 213  0.732  0.935  0.875-  71 2.10  50 2.13  56 2.13
 214  0.935  0.732  0.875-  71 2.10  24 2.13  18 2.13
 215  0.768  0.769  0.751-  72 2.10  69 2.13  71 2.14
 216  0.899  0.899  0.749-   8 2.10  71 2.13  69 2.13
 217  0.167  1.000  0.000-

IMPORTANT INFORMATION: All symmetrisations will be switched off!
NOSYMM: (Re-)initialisation of all symmetry stuff for point group C_1.

 KPOINTS: KPOINTS created by Atomic Simulation Env

Automatic generation of k-mesh.
Space group operators:
 irot       det(A)        alpha          n_x          n_y          n_z        tau_x        tau_y        tau_z
    1     1.000000     0.000000     1.000000     0.000000     0.000000     0.000000     0.000000     0.000000

 Subroutine IBZKPT returns following result:

 Found      4 irreducible k-points:

 Following reciprocal coordinates:
            Coordinates               Weight
  0.250000  0.250000  0.250000      2.000000
 -0.250000  0.250000  0.250000      2.000000
  0.250000 -0.250000  0.250000      2.000000
 -0.250000 -0.250000  0.250000      2.000000

 Following cartesian coordinates:
            Coordinates               Weight
  0.017066  0.017066  0.018935      2.000000
 -0.017066  0.017066  0.018935      2.000000
  0.017066 -0.017066  0.018935      2.000000
 -0.017066 -0.017066  0.018935      2.000000

 SYSTEM =  unknown system
 POSCAR =  Mn  F  H

 Startparameter for this run:
   NWRITE =      2    write-flag & timer
   PREC   = normal    normal or accurate (medium, high low for compatibility)
   ISTART =      1    job   : 0-new  1-cont  2-samecut
   ICHARG =      1    charge: 1-file 2-atom 10-const
   ISPIN  =      2    spin polarized calculation?
   LNONCOLLINEAR =      F non collinear calculations
   LSORBIT =      F    spin-orbit coupling
   INIWAV =      1    electr: 0-lowe 1-rand  2-diag
   LASPH  =      T    aspherical Exc in radial PAW
   METAGGA=      F    non-selfconsistent MetaGGA calc.

 Electronic Relaxation 1
   ENCUT  =  700.0 eV  51.45 Ry    7.17 a.u.  31.60 31.60 28.48*2*pi/ulx,y,z
   ENINI  =  700.0     initial cutoff
   ENAUG  =  613.6 eV  augmentation charge cutoff
   NELM   =     60;   NELMIN=  2; NELMDL=  0     # of ELM steps
   EDIFF  = 0.1E-06   stopping-criterion for ELM
   LREAL  =      F    real-space projection
   NLSPLINE    = F    spline interpolate recip. space projectors
   LCOMPAT=      F    compatible to vasp.4.4
   GGA_COMPAT  = T    GGA compatible to vasp.4.4-vasp.4.6
   LMAXPAW     = -100 max onsite density
   LMAXMIX     =    4 max onsite mixed and CHGCAR
   VOSKOWN=      0    Vosko Wilk Nusair interpolation
   ROPT   =    0.00000   0.00000   0.00000
 Ionic relaxation
   EDIFFG = -.5E-02   stopping-criterion for IOM
   NSW    =      0    number of steps for IOM
   NBLOCK =      1;   KBLOCK =      1    inner block; outer block
   IBRION =     -1    ionic relax: 0-MD 1-quasi-New 2-CG
   NFREE  =      0    steps in history (QN), initial steepest desc. (CG)
   ISIF   =      2    stress and relaxation
   IWAVPR =     10    prediction:  0-non 1-charg 2-wave 3-comb
   ISYM   =      0    0-nonsym 1-usesym 2-fastsym
   LCORR  =      T    Harris-Foulkes like correction to forces

   POTIM  = 0.5000    time-step for ionic-motion
   TEIN   =    0.0    initial temperature
   TEBEG  =    0.0;   TEEND  =   0.0 temperature during run
   SMASS  =  -3.00    Nose mass-parameter (am)
   estimated Nose-frequenzy (Omega)   =  0.10E-29 period in steps =****** mass=  -0.490E-26a.u.
   SCALEE = 1.0000    scale energy and forces
   NPACO  =    256;   APACO  = 16.0  distance and # of slots for P.C.
   PSTRESS=    0.0 pullay stress

  Mass of Ions in am
   POMASS =  54.94 19.00  1.00
  Ionic Valenz
   ZVAL   =  13.00  7.00  1.00
  Atomic Wigner-Seitz radii
  virtual crystal weights
   VCA    =   1.00  1.00  1.00
   NELECT =    1945.0000    total number of electrons
   NUPDOWN=      -1.0000    fix difference up-down

 DOS related values:
   EMIN   =  10.00;   EMAX   =-10.00  energy-range for DOS
   EFERMI =   0.00
   ISMEAR =     0;   SIGMA  =   0.01  broadening in eV -4-tet -1-fermi 0-gaus

 Electronic relaxation 2 (details)
   IALGO  =     68    algorithm
   LDIAG  =      T    sub-space diagonalisation (order eigenvalues)
   LSUBROT=      F    optimize rotation matrix (better conditioning)
   TURBO    =      0    0=normal 1=particle mesh
   IRESTART =      0    0=no restart 2=restart with 2 vectors
   NREBOOT  =      0    no. of reboots
   NMIN     =      0    reboot dimension
[...]

 Fermi contact (isotropic) hyperfine coupling parameter (MHz)
  ion      A_pw      A_1PS     A_1AE     A_1c      A_tot
   1     121.863   121.854    37.898  -116.014    37.907
   2    -121.435  -121.425   -36.556   115.687   -36.566
   3     121.897   121.888    37.466  -116.048    37.475
   4    -121.858  -121.849   -37.154   115.994   -37.163
   5     121.897   121.888    37.466  -116.049    37.475
   6    -121.893  -121.884   -37.457   116.036   -37.466
   7     121.863   121.854    37.897  -116.014    37.907
   8    -121.858  -121.849   -37.155   115.994   -37.164
   9     121.904   121.895    37.558  -116.065    37.568
  10    -121.911  -121.902   -37.640   116.085   -37.649
  11     121.887   121.878    37.456  -116.014    37.465
  12    -121.883  -121.874   -37.508   116.006   -37.517
  13     121.887   121.878    37.457  -116.014    37.466
  14    -121.889  -121.880   -37.399   116.021   -37.408
  15     121.904   121.895    37.559  -116.065    37.568
  16    -121.883  -121.874   -37.508   116.006   -37.517
  17     121.863   121.854    37.899  -116.014    37.909
  18    -121.891  -121.882   -37.524   116.035   -37.534
  19     121.897   121.888    37.465  -116.048    37.474
  20    -121.892  -121.883   -37.473   116.033   -37.483
  21     121.897   121.888    37.465  -116.048    37.474
  22    -121.895  -121.886   -37.443   116.039   -37.452
  23     121.863   121.854    37.900  -116.015    37.909
  24    -121.892  -121.883   -37.475   116.034   -37.484
  25     121.902   121.893    37.468  -116.066    37.477
  26    -121.428  -121.419   -36.532   115.681   -36.541
  27     121.894   121.885    37.511  -116.040    37.520
  28    -121.858  -121.849   -37.152   115.993   -37.161
  29     121.894   121.885    37.512  -116.040    37.521
  30    -121.893  -121.884   -37.456   116.036   -37.465
  31     121.902   121.893    37.468  -116.066    37.478
  32    -121.858  -121.849   -37.153   115.993   -37.163
  33     121.892   121.883    37.507  -116.034    37.517
  34    -121.891  -121.882   -37.522   116.035   -37.532
  35     121.892   121.883    37.480  -116.032    37.489
  36    -121.892  -121.883   -37.474   116.033   -37.483
  37     121.892   121.883    37.480  -116.032    37.489
  38    -121.895  -121.886   -37.444   116.040   -37.454
  39     121.892   121.883    37.508  -116.034    37.517
  40    -121.892  -121.883   -37.474   116.033   -37.483
  41     121.909   121.899    37.452  -116.081    37.461
  42    -121.911  -121.902   -37.642   116.085   -37.651
  43     121.895   121.886    37.522  -116.044    37.531
  44    -121.883  -121.874   -37.508   116.006   -37.518
  45     121.895   121.886    37.522  -116.044    37.532
  46    -121.889  -121.880   -37.397   116.021   -37.407
  47     121.908   121.899    37.453  -116.081    37.462
  48    -121.883  -121.874   -37.508   116.006   -37.517
  49     121.908   121.899    37.451  -116.080    37.461
  50    -121.894  -121.884   -37.436   116.034   -37.445
  51     121.895   121.886    37.522  -116.044    37.532
  52    -121.900  -121.891   -37.482   116.056   -37.491
  53     121.895   121.886    37.522  -116.044    37.532
  54    -121.896  -121.886   -37.526   116.045   -37.535
  55     121.908   121.899    37.452  -116.080    37.461
  56    -121.900  -121.891   -37.482   116.056   -37.491
  57     121.892   121.883    37.508  -116.034    37.517
  58    -121.904  -121.895   -37.395   116.068   -37.404
  59     121.892   121.883    37.480  -116.033    37.489
  60    -121.896  -121.887   -37.488   116.047   -37.497
[...]
 203       0.853     0.850     5.502    -0.598     5.505
 204       0.855     0.852     5.478    -0.602     5.481
 205      -0.836    -0.833    -5.448     0.582    -5.451
 206      -0.839    -0.836    -5.464     0.584    -5.467
 207       0.831     0.829     5.450    -0.577     5.453
 208       0.840     0.837     5.504    -0.583     5.507
 209      -0.836    -0.833    -5.448     0.582    -5.451
 210      -0.838    -0.836    -5.464     0.584    -5.467
 211       0.835     0.832     5.457    -0.581     5.460
 212       0.827     0.824     5.466    -0.572     5.469
 213      -0.843    -0.840    -5.489     0.587    -5.492
 214      -0.839    -0.836    -5.463     0.585    -5.466
 215       0.832     0.829     5.451    -0.577     5.453
 216       0.840     0.837     5.504    -0.583     5.507
 217      17.874    17.810    29.104     0.000    29.167

 Dipolar hyperfine coupling parameters (MHz)
  ion      A_xx      A_yy      A_zz      A_xy      A_xz      A_yz
   1      -0.564    -0.807     1.370    -0.310     0.065    -0.068
   2       1.989    -0.150    -1.839    -0.324     0.002    -0.000
   3      -0.679    -0.680     1.359    -0.293    -0.003    -0.021
   4       0.634     0.669    -1.302    -0.319    -0.049     0.068
   5      -0.678    -0.680     1.359    -0.293     0.003     0.021
   6       0.657     0.663    -1.320    -0.297     0.000    -0.000
   7      -0.564    -0.807     1.370    -0.310    -0.064     0.068
   8       0.634     0.668    -1.302    -0.319     0.049    -0.068
   9      -0.677    -0.669     1.347    -0.297     0.000    -0.000
  10       0.631     0.747    -1.378    -0.349    -0.000    -0.000
  11      -0.669    -0.685     1.353    -0.282    -0.000    -0.000
  12       0.658     0.698    -1.356    -0.291     0.049    -0.013
  13      -0.669    -0.684     1.353    -0.282    -0.000     0.000
  14       0.654     0.673    -1.327    -0.287    -0.000    -0.000
  15      -0.677    -0.669     1.347    -0.297     0.000    -0.000
  16       0.658     0.698    -1.356    -0.291    -0.049     0.013
  17      -0.564    -0.807     1.370    -0.310    -0.065     0.068
  18       0.681     0.674    -1.354    -0.297    -0.000    -0.000
  19      -0.679    -0.680     1.359    -0.293     0.003     0.021
  20       0.661     0.681    -1.342    -0.294    -0.020    -0.014
  21      -0.679    -0.680     1.359    -0.293    -0.003    -0.022
  22       0.661     0.678    -1.339    -0.283    -0.000    -0.000
  23      -0.564    -0.806     1.371    -0.310     0.064    -0.068
  24       0.662     0.681    -1.342    -0.294     0.020     0.013
  25      -0.646    -0.665     1.311    -0.286     0.002    -0.007
  26       2.003    -0.157    -1.846    -0.325    -0.001    -0.000
  27      -0.669    -0.677     1.346    -0.304     0.014     0.013
  28       0.634     0.668    -1.302    -0.319     0.049    -0.068
  29      -0.669    -0.677     1.346    -0.304    -0.013    -0.012
  30       0.657     0.663    -1.320    -0.297     0.000     0.000
  31      -0.646    -0.665     1.311    -0.286    -0.002     0.007
  32       0.634     0.668    -1.302    -0.319    -0.049     0.068
  33      -0.668    -0.659     1.327    -0.313    -0.003    -0.001
  34       0.680     0.674    -1.354    -0.297     0.000    -0.000
  35      -0.671    -0.665     1.336    -0.303    -0.007     0.005
  36       0.661     0.681    -1.342    -0.294     0.020     0.014
  37      -0.671    -0.665     1.336    -0.303     0.007    -0.005
  38       0.661     0.679    -1.339    -0.283    -0.000     0.000
  39      -0.668    -0.659     1.327    -0.313     0.003     0.002
  40       0.662     0.680    -1.342    -0.294    -0.020    -0.014
  41      -0.669    -0.671     1.341    -0.277     0.016    -0.024
  42       0.630     0.748    -1.378    -0.349    -0.000     0.000
  43      -0.665    -0.680     1.345    -0.311     0.007    -0.013
  44       0.658     0.698    -1.356    -0.291    -0.049     0.013
  45      -0.665    -0.680     1.345    -0.311    -0.007     0.013
  46       0.655     0.673    -1.327    -0.286    -0.000    -0.000
  47      -0.669    -0.671     1.341    -0.277    -0.016     0.025
  48       0.658     0.698    -1.356    -0.291     0.049    -0.013
  49      -0.670    -0.671     1.340    -0.277    -0.016     0.024
  50       0.702     0.653    -1.355    -0.292     0.000     0.000
  51      -0.664    -0.680     1.345    -0.311    -0.008     0.013
  52       0.668     0.670    -1.338    -0.297    -0.000    -0.000
  53      -0.665    -0.680     1.345    -0.311     0.008    -0.013
  54       0.678     0.660    -1.338    -0.308     0.000    -0.000
  55      -0.670    -0.671     1.340    -0.277     0.016    -0.024
  56       0.668     0.670    -1.338    -0.298     0.000     0.000
  57      -0.668    -0.659     1.327    -0.313     0.003     0.001
  58       0.680     0.669    -1.349    -0.275    -0.000    -0.000
  59      -0.671    -0.665     1.336    -0.303     0.007    -0.004
  60       0.670     0.670    -1.341    -0.298    -0.013    -0.012
[...]
 203      -1.268    -1.248     2.517    -0.179    -0.000     0.000
 204      -1.175    -1.308     2.483    -0.305     0.000    -0.000
 205       1.296     1.260    -2.556    -0.239    -0.005    -0.004
 206       1.272     1.275    -2.547    -0.231    -0.007    -0.019
 207      -1.280    -1.279     2.559    -0.214    -0.017    -0.012
 208      -1.272    -1.302     2.573    -0.250    -0.040    -0.030
 209       1.296     1.260    -2.556    -0.239     0.005     0.003
 210       1.272     1.276    -2.547    -0.231     0.007     0.019
 211      -1.276    -1.285     2.561    -0.241     0.000     0.000
 212      -1.281    -1.284     2.565    -0.230     0.000    -0.000
 213       1.295     1.251    -2.546    -0.221     0.020     0.004
 214       1.276     1.301    -2.577    -0.230    -0.002     0.015
 215      -1.280    -1.279     2.559    -0.214     0.018     0.012
 216      -1.270    -1.303     2.573    -0.250     0.040     0.030
 217      -3.717     2.725     0.992     0.052    -0.000     0.000

 Total hyperfine coupling parameters after diagonalization (MHz)
 (convention: |A_zz| > |A_xx| > |A_yy|)
  ion      A_xx      A_yy      A_zz     asymmetry (A_yy - A_xx)/ A_zz
   1      37.551    36.889    39.282      -0.017
   2     -36.764   -34.528   -38.405      -0.058
   3      37.089    36.502    38.834      -0.015
   4     -36.832   -36.190   -38.469      -0.017
   5      37.088    36.502    38.834      -0.015
   6     -37.103   -36.509   -38.786      -0.015
   7      37.550    36.888    39.282      -0.017
   8     -36.833   -36.190   -38.469      -0.017
   9      37.192    36.597    38.914      -0.015
  10     -37.314   -36.607   -39.027      -0.018
  11      37.070    36.507    38.818      -0.015
  12     -37.131   -36.546   -38.874      -0.015
  13      37.071    36.507    38.819      -0.015
  14     -37.031   -36.457   -38.735      -0.015
  15      37.192    36.597    38.915      -0.015
  16     -37.131   -36.546   -38.874      -0.015
  17      37.552    36.890    39.284      -0.017
  18     -37.154   -36.559   -38.888      -0.015
  19      37.088    36.502    38.833      -0.015
  20     -37.106   -36.517   -38.825      -0.015
  21      37.087    36.502    38.833      -0.015
  22     -37.065   -36.499   -38.791      -0.015
  23      37.552    36.890    39.285      -0.017
  24     -37.107   -36.518   -38.826      -0.015
  25      37.108    36.536    38.789      -0.015
  26     -36.746   -34.490   -38.387      -0.059
  27      37.151    36.544    38.866      -0.016
  28     -36.830   -36.188   -38.467      -0.017
  29      37.152    36.544    38.867      -0.016
  30     -37.103   -36.508   -38.786      -0.015
  31      37.108    36.536    38.789      -0.015
  32     -36.831   -36.189   -38.468      -0.017
  33      37.166    36.540    38.844      -0.016
  34     -37.151   -36.558   -38.886      -0.015
  35      37.125    36.518    38.825      -0.016
  36     -37.106   -36.517   -38.825      -0.015
  37      37.125    36.518    38.825      -0.016
  38     -37.067   -36.500   -38.793      -0.015
  39      37.166    36.540    38.844      -0.016
  40     -37.106   -36.518   -38.826      -0.015
  41      37.068    36.514    38.803      -0.014
  42     -37.316   -36.608   -39.029      -0.018
  43      37.170    36.547    38.876      -0.016
  44     -37.131   -36.547   -38.875      -0.015
  45      37.170    36.548    38.877      -0.016
  46     -37.030   -36.456   -38.734      -0.015
  47      37.068    36.515    38.803      -0.014
  48     -37.131   -36.546   -38.874      -0.015
  49      37.067    36.514    38.801      -0.014
  50     -37.061   -36.475   -38.800      -0.015
  51      37.171    36.548    38.877      -0.016
  52     -37.119   -36.524   -38.830      -0.015
  53      37.170    36.548    38.877      -0.016
  54     -37.175   -36.558   -38.873      -0.016
  55      37.067    36.514    38.802      -0.014
  56     -37.120   -36.524   -38.829      -0.015
  57      37.166    36.540    38.844      -0.016
  58     -37.005   -36.454   -38.754      -0.014
  59      37.124    36.518    38.825      -0.016
  60     -37.125   -36.528   -38.838      -0.015
[...]
 203       4.426     4.067     8.022      -0.045
 204       4.552     3.927     7.963      -0.078
 205      -4.413    -3.933    -8.007      -0.060
 206      -4.424    -3.963    -8.014      -0.058
 207       4.388     3.959     8.013      -0.053
 208       4.470     3.970     8.081      -0.062
 209      -4.413    -3.934    -8.007      -0.060
 210      -4.424    -3.963    -8.015      -0.058
 211       4.421     3.939     8.021      -0.060
 212       4.417     3.956     8.034      -0.057
 213      -4.442    -3.997    -8.038      -0.055
 214      -4.408    -3.947    -8.043      -0.057
 215       4.388     3.959     8.013      -0.053
 216       4.470     3.969     8.080      -0.062
 217      30.159    25.449    31.892      -0.148

 writing wavefunctions

 total charge

[...]

 magnetization (x)

# of ion       s       p       d       tot
    1        0.019   0.018   4.627   4.664
    2       -0.018  -0.018  -4.609  -4.644
    3        0.018   0.018   4.628   4.665
    4       -0.018  -0.018  -4.627  -4.663
    5        0.018   0.018   4.628   4.665
    6       -0.018  -0.018  -4.628  -4.665
    7        0.019   0.018   4.627   4.664
    8       -0.018  -0.018  -4.627  -4.663
    9        0.018   0.018   4.629   4.666
   10       -0.018  -0.018  -4.629  -4.666
   11        0.018   0.019   4.628   4.665
   12       -0.018  -0.019  -4.628  -4.665
   13        0.018   0.019   4.628   4.665
   14       -0.018  -0.019  -4.628  -4.665
   15        0.018   0.018   4.629   4.666
   16       -0.018  -0.019  -4.628  -4.665
   17        0.019   0.019   4.627   4.664
   18       -0.018  -0.019  -4.628  -4.665
   19        0.018   0.018   4.628   4.665
   20       -0.018  -0.019  -4.628  -4.665
   21        0.018   0.018   4.628   4.665
   22       -0.018  -0.018  -4.628  -4.665
   23        0.019   0.019   4.627   4.664
   24       -0.018  -0.019  -4.628  -4.665
   25        0.018   0.018   4.629   4.665
   26       -0.018  -0.018  -4.609  -4.644
   27        0.018   0.019   4.628   4.665
   28       -0.018  -0.018  -4.627  -4.663
   29        0.018   0.019   4.628   4.665
   30       -0.018  -0.018  -4.628  -4.665
   31        0.018   0.018   4.629   4.665
   32       -0.018  -0.018  -4.627  -4.663
   33        0.018   0.019   4.628   4.665
   34       -0.018  -0.019  -4.628  -4.665
   35        0.018   0.019   4.628   4.665
   36       -0.018  -0.019  -4.628  -4.665
   37        0.018   0.019   4.628   4.665
   38       -0.018  -0.018  -4.628  -4.665
   39        0.018   0.019   4.628   4.665
   40       -0.018  -0.019  -4.628  -4.665
   41        0.018   0.018   4.629   4.666
   42       -0.018  -0.018  -4.629  -4.666
   43        0.018   0.019   4.628   4.665
   44       -0.018  -0.019  -4.628  -4.665
   45        0.018   0.019   4.628   4.665
   46       -0.018  -0.019  -4.628  -4.665
   47        0.018   0.018   4.629   4.666
   48       -0.018  -0.019  -4.628  -4.665
   49        0.018   0.018   4.629   4.666
   50       -0.018  -0.019  -4.628  -4.665
   51        0.018   0.019   4.628   4.665
   52       -0.018  -0.018  -4.628  -4.665
   53        0.018   0.019   4.628   4.665
   54       -0.018  -0.019  -4.628  -4.665
   55        0.018   0.018   4.629   4.666
   56       -0.018  -0.018  -4.628  -4.665
   57        0.018   0.019   4.628   4.665
   58       -0.018  -0.018  -4.629  -4.665
   59        0.018   0.019   4.628   4.665
   60       -0.018  -0.018  -4.628  -4.665
[...]
  203        0.002   0.015   0.000   0.017
  204        0.002   0.015   0.000   0.017
  205       -0.002  -0.015   0.000  -0.017
  206       -0.002  -0.015   0.000  -0.017
  207        0.002   0.015   0.000   0.017
  208        0.002   0.015   0.000   0.017
  209       -0.002  -0.015   0.000  -0.017
  210       -0.002  -0.015   0.000  -0.017
  211        0.002   0.015   0.000   0.017
  212        0.002   0.015   0.000   0.017
  213       -0.002  -0.015   0.000  -0.017
  214       -0.002  -0.015   0.000  -0.017
  215        0.002   0.015   0.000   0.017
  216        0.002   0.015   0.000   0.017
  217        0.323   0.000   0.000   0.324
tot          0.340   0.177   0.045   0.562