 vasp.5.4.4.18Apr17-6-g9f103f2a35 (build Nov 21 2017 18:25:41) complex

 executed on         CrayXC-Intel date 2022.04.10  16:43:19

 INCAR:
 POTCAR:    PAW_PBE Mn_pv 02Aug2007
 POTCAR:    PAW_PBE F 08Apr2002
 POTCAR:    PAW_PBE H 15Jun2001

 POTCAR:    PAW_PBE Mn_pv 02Aug2007
   VRHFIN =Mn: 3p4s3d

   TITEL  = PAW_PBE Mn_pv 02Aug2007
   POMASS =   54.938; ZVAL   =   13.000    mass and valenz
   ENMAX  =  269.864; ENMIN  =  202.398 eV

 POTCAR:    PAW_PBE F 08Apr2002
   VRHFIN =F: s2p5

   TITEL  = PAW_PBE F 08Apr2002
   POMASS =   18.998; ZVAL   =    7.000    mass and valenz
   ENMAX  =  400.000; ENMIN  =  300.000 eV

 POTCAR:    PAW_PBE H 15Jun2001
   VRHFIN =H: ultrasoft test

   TITEL  = PAW_PBE H 15Jun2001
   POMASS =    1.000; ZVAL   =    1.000    mass and valenz
   ENMAX  =  250.000; ENMIN  =  200.000 eV

  PAW_PBE Mn_pv 02Aug2007               :
  PAW_PBE F 08Apr2002                   :
  PAW_PBE H 15Jun2001                   :

 POSCAR: Mn  F  H
  positions in direct lattice
  velocities in cartesian coordinates
 exchange correlation table for  LEXCH =       14
   RHO(1)=    0.500       N(1)  =     2000
   RHO(2)=  100.500       N(2)  =     4000

 ion  position               nearest neighbor table
   1  0.161  0.157  0.125-  74 2.10  79 2.11  75 2.11  73 2.13  76 2.19  80 2.19
   2  0.001  0.991  0.011- 217 2.00 204 2.12 170 2.15 117 2.15  75 2.17 105 2.24 182 2.28   4 3.01

   3  0.165  0.166  0.375-  79 2.08  77 2.10  78 2.11  80 2.13  83 2.13  84 2.14
   4  0.001  0.991  0.239- 217 2.00 208 2.12 170 2.15 109 2.15  79 2.17 105 2.24 174 2.28   2 3.01

   5  0.166  0.166  0.625-  82 2.10  81 2.10  87 2.11  83 2.11  88 2.13  84 2.13
   6  0.999  0.999  0.497- 174 2.10 212 2.10  83 2.11 109 2.14 178 2.15 113 2.16
   7  0.165  0.166  0.875-  75 2.08  85 2.10  86 2.11  76 2.13  87 2.13  88 2.14
   8  0.999  0.999  0.753- 182 2.10 216 2.10  87 2.11 117 2.14 178 2.15 113 2.16
   9  0.167  0.500  0.125-  89 2.09  90 2.10  95 2.13  91 2.13  96 2.13  92 2.13
  10  0.001  0.333  0.000- 172 2.08  91 2.10  73 2.12  85 2.12 186 2.13 198 2.14
  11  0.167  0.500  0.375-  93 2.10  94 2.10  95 2.12  96 2.13  99 2.13 100 2.13
  12  0.001  0.333  0.250- 176 2.08  95 2.10  73 2.12  77 2.12 186 2.13 190 2.14
  13  0.166  0.500  0.625-  97 2.09  98 2.10  99 2.12 103 2.12 100 2.13 104 2.13
  14  1.000  0.334  0.500- 180 2.09  99 2.10  77 2.11 190 2.12 194 2.13  81 2.13
  15  0.167  0.500  0.875- 101 2.10 102 2.10  91 2.12  92 2.13 103 2.13 104 2.13
  16  1.000  0.334  0.750- 184 2.09 103 2.10  85 2.11 198 2.12 194 2.13  81 2.13
  17  0.169  0.840  0.125- 105 2.06 106 2.12 107 2.14 111 2.14 108 2.15 112 2.15
  18  0.000  0.668  0.001- 188 2.10 202 2.10 107 2.11 214 2.13 101 2.13  89 2.13
  19  0.166  0.833  0.375- 109 2.08 110 2.10 112 2.11 115 2.13 116 2.13 111 2.14
  20  0.000  0.668  0.249- 192 2.10 202 2.10 111 2.11 206 2.13  93 2.13  89 2.13
  21  0.166  0.835  0.625- 113 2.09 114 2.11 120 2.12 116 2.12 115 2.13 119 2.13
  22  1.000  0.668  0.500- 115 2.09 196 2.10 206 2.12 210 2.12  97 2.13  93 2.13
  23  0.166  0.833  0.875- 117 2.08 118 2.10 108 2.11 119 2.13 120 2.13 107 2.14
  24  1.000  0.668  0.750- 119 2.09 200 2.10 214 2.12 210 2.12  97 2.13 101 2.13
  25  0.502  0.166  0.125- 122 2.09 121 2.10 123 2.13 127 2.13 124 2.13 128 2.13
  26  0.335  0.000  1.000- 108 2.08 123 2.09  74 2.12  86 2.13 153 2.13 165 2.14
  27  0.501  0.167  0.375- 126 2.09 125 2.10 127 2.12 132 2.13 128 2.13 131 2.13
  28  0.335  0.000  0.250- 112 2.08 127 2.09  74 2.12  78 2.13 153 2.13 157 2.14
  29  0.499  0.168  0.625- 129 2.09 130 2.09 131 2.12 135 2.12 136 2.13 132 2.13
  30  0.333  0.001  0.500- 116 2.10 131 2.10 157 2.12  78 2.12  82 2.13 161 2.13
  31  0.501  0.167  0.875- 134 2.09 133 2.10 123 2.12 136 2.13 124 2.13 135 2.13
  32  0.333  0.001  0.750- 120 2.10 135 2.10 165 2.12  86 2.12  82 2.13 161 2.13
  33  0.501  0.501  0.125- 138 2.10 137 2.10 144 2.13 140 2.13 139 2.14 143 2.14
  34  0.332  0.331  0.001-  76 2.10 139 2.12 121 2.12  90 2.12 133 2.13 102 2.14
  35  0.500  0.500  0.373- 141 2.10 142 2.10 143 2.12 144 2.13 148 2.13 147 2.14
  36  0.332  0.331  0.249-  80 2.10 143 2.12 121 2.12  90 2.12 125 2.13  94 2.14
  37  0.499  0.498  0.625- 146 2.09 145 2.10 147 2.13 151 2.13 152 2.13 148 2.13
  38  0.332  0.333  0.499-  84 2.09 147 2.10  94 2.12 125 2.13 129 2.13  98 2.13
  39  0.500  0.500  0.877- 149 2.10 150 2.10 139 2.12 140 2.13 152 2.13 151 2.14
  40  0.332  0.333  0.751-  88 2.09 151 2.10 102 2.12 133 2.13 129 2.13  98 2.13
  41  0.500  0.833  0.125- 153 2.09 154 2.09 156 2.12 160 2.12 159 2.13 155 2.13
  42  0.333  0.668  0.000- 155 2.09  92 2.10 106 2.12 118 2.13 137 2.13 149 2.13
  43  0.502  0.835  0.375- 157 2.09 158 2.10 160 2.12 164 2.12 159 2.13 163 2.14
  44  0.333  0.668  0.250- 159 2.09  96 2.10 106 2.12 110 2.13 137 2.13 141 2.13
  45  0.498  0.832  0.625- 161 2.09 162 2.10 168 2.12 164 2.12 163 2.13 167 2.13
  46  0.333  0.666  0.500- 163 2.09 100 2.09 110 2.12 145 2.13 141 2.13 114 2.13
  47  0.502  0.835  0.875- 165 2.09 166 2.10 156 2.12 168 2.12 155 2.13 167 2.14
  48  0.333  0.666  0.750- 167 2.09 104 2.09 118 2.12 145 2.13 149 2.13 114 2.13
  49  0.834  0.168  0.125- 170 2.05 169 2.09 172 2.13 176 2.13 175 2.14 171 2.14
  50  0.670  0.998  1.000- 171 2.09 156 2.10 201 2.11 213 2.12 122 2.14 134 2.15
  51  0.836  0.165  0.374- 174 2.07 176 2.12 173 2.12 175 2.12 179 2.14 180 2.14
  52  0.670  0.998  0.250- 175 2.09 160 2.10 201 2.11 205 2.12 122 2.14 126 2.15
  53  0.834  0.165  0.625- 178 2.09 177 2.10 184 2.13 180 2.13 179 2.13 183 2.13
  54  0.664  0.001  0.501- 205 2.09 179 2.10 164 2.10 130 2.12 126 2.13 209 2.13
  55  0.836  0.165  0.876- 182 2.07 172 2.12 181 2.12 171 2.12 183 2.14 184 2.14
  56  0.664  0.001  0.749- 213 2.09 183 2.10 168 2.10 130 2.12 134 2.13 209 2.13
  57  0.835  0.500  0.125- 185 2.09 186 2.09 192 2.13 188 2.13 191 2.13 187 2.13
  58  0.668  0.334  1.000- 124 2.09 187 2.09 169 2.12 150 2.13 181 2.13 138 2.14
  59  0.834  0.500  0.375- 190 2.09 189 2.10 192 2.12 191 2.12 196 2.13 195 2.13
  60  0.668  0.334  0.250- 128 2.09 191 2.09 169 2.12 142 2.13 173 2.13 138 2.14
  61  0.833  0.500  0.625- 193 2.09 194 2.09 196 2.13 200 2.13 199 2.13 195 2.13
  62  0.668  0.333  0.500- 132 2.09 195 2.09 173 2.12 177 2.13 142 2.13 146 2.14
  63  0.834  0.500  0.875- 198 2.09 197 2.10 188 2.12 187 2.12 200 2.13 199 2.13
  64  0.668  0.333  0.750- 136 2.09 199 2.09 181 2.12 177 2.13 150 2.13 146 2.14
[...]
 203  0.772  0.769  0.005-  66 2.08  71 2.11  65 2.29
 204  0.881  0.915  0.978-  71 2.03   2 2.12  65 2.19
 205  0.721  0.928  0.380-  54 2.09  67 2.11  52 2.12
 206  0.934  0.732  0.375-  67 2.12  22 2.12  20 2.13
 207  0.772  0.769  0.245-  68 2.08  67 2.11  65 2.29
 208  0.881  0.915  0.272-  67 2.03   4 2.12  65 2.19
 209  0.730  0.935  0.625-  69 2.10  54 2.13  56 2.13
 210  0.935  0.732  0.625-  69 2.11  24 2.12  22 2.12
 211  0.767  0.765  0.504-  70 2.08  67 2.10  69 2.13
 212  0.897  0.898  0.500-  69 2.10   6 2.10  67 2.16
 213  0.721  0.928  0.871-  56 2.09  71 2.11  50 2.12
 214  0.934  0.732  0.875-  71 2.12  24 2.12  18 2.13
 215  0.767  0.765  0.746-  72 2.08  71 2.10  69 2.13
 216  0.897  0.898  0.750-  69 2.10   8 2.10  71 2.16
 217  0.972  0.905  0.125-  65 1.92   2 2.00   4 2.00

IMPORTANT INFORMATION: All symmetrisations will be switched off!
NOSYMM: (Re-)initialisation of all symmetry stuff for point group C_1.

 KPOINTS: KPOINTS created by Atomic Simulation Env

Automatic generation of k-mesh.
Space group operators:
 irot       det(A)        alpha          n_x          n_y          n_z        tau_x        tau_y        tau_z
    1     1.000000     0.000000     1.000000     0.000000     0.000000     0.000000     0.000000     0.000000

 Subroutine IBZKPT returns following result:

 Found      4 irreducible k-points:

 Following reciprocal coordinates:
            Coordinates               Weight
  0.250000  0.250000  0.250000      2.000000
 -0.250000  0.250000  0.250000      2.000000
  0.250000 -0.250000  0.250000      2.000000
 -0.250000 -0.250000  0.250000      2.000000

 Following cartesian coordinates:
            Coordinates               Weight
  0.017111  0.017111  0.018996      2.000000
 -0.017111  0.017111  0.018996      2.000000
  0.017111 -0.017111  0.018996      2.000000
 -0.017111 -0.017111  0.018996      2.000000

 SYSTEM =  unknown system
 POSCAR =  Mn  F  H

 Startparameter for this run:
   NWRITE =      2    write-flag & timer
   PREC   = normal    normal or accurate (medium, high low for compatibility)
   ISTART =      0    job   : 0-new  1-cont  2-samecut
   ICHARG =      2    charge: 1-file 2-atom 10-const
   ISPIN  =      2    spin polarized calculation?
   LNONCOLLINEAR =      F non collinear calculations
   LSORBIT =      F    spin-orbit coupling
   INIWAV =      1    electr: 0-lowe 1-rand  2-diag
   LASPH  =      T    aspherical Exc in radial PAW
   METAGGA=      F    non-selfconsistent MetaGGA calc.

 Electronic Relaxation 1
   ENCUT  =  700.0 eV  51.45 Ry    7.17 a.u.  31.52 31.52 28.39*2*pi/ulx,y,z
   ENINI  =  700.0     initial cutoff
   ENAUG  =  613.6 eV  augmentation charge cutoff
   NELM   =     60;   NELMIN=  2; NELMDL= -5     # of ELM steps
   EDIFF  = 0.1E-06   stopping-criterion for ELM
   LREAL  =      F    real-space projection
   NLSPLINE    = F    spline interpolate recip. space projectors
   LCOMPAT=      F    compatible to vasp.4.4
   GGA_COMPAT  = T    GGA compatible to vasp.4.4-vasp.4.6
   LMAXPAW     = -100 max onsite density
   LMAXMIX     =    4 max onsite mixed and CHGCAR
   VOSKOWN=      0    Vosko Wilk Nusair interpolation
   ROPT   =    0.00000   0.00000   0.00000
 Ionic relaxation
   EDIFFG = -.5E-02   stopping-criterion for IOM
   NSW    =      0    number of steps for IOM
   NBLOCK =      1;   KBLOCK =      1    inner block; outer block
   IBRION =     -1    ionic relax: 0-MD 1-quasi-New 2-CG
   NFREE  =      0    steps in history (QN), initial steepest desc. (CG)
   ISIF   =      2    stress and relaxation
   IWAVPR =     10    prediction:  0-non 1-charg 2-wave 3-comb
   ISYM   =      0    0-nonsym 1-usesym 2-fastsym
   LCORR  =      T    Harris-Foulkes like correction to forces

   POTIM  = 0.5000    time-step for ionic-motion
   TEIN   =    0.0    initial temperature
   TEBEG  =    0.0;   TEEND  =   0.0 temperature during run
   SMASS  =  -3.00    Nose mass-parameter (am)
   estimated Nose-frequenzy (Omega)   =  0.10E-29 period in steps =****** mass=  -0.488E-26a.u.
   SCALEE = 1.0000    scale energy and forces
   NPACO  =    256;   APACO  = 16.0  distance and # of slots for P.C.
   PSTRESS=    0.0 pullay stress

  Mass of Ions in am
   POMASS =  54.94 19.00  1.00
  Ionic Valenz
   ZVAL   =  13.00  7.00  1.00
  Atomic Wigner-Seitz radii
  virtual crystal weights
   VCA    =   1.00  1.00  1.00
   NELECT =    1946.0000    total number of electrons
   NUPDOWN=      -1.0000    fix difference up-down

 DOS related values:
   EMIN   =  10.00;   EMAX   =-10.00  energy-range for DOS
   EFERMI =   0.00
   ISMEAR =     0;   SIGMA  =   0.02  broadening in eV -4-tet -1-fermi 0-gaus

 Electronic relaxation 2 (details)
   IALGO  =     68    algorithm
[...]

 Fermi contact (isotropic) hyperfine coupling parameter (MHz)
  ion      A_pw      A_1PS     A_1AE     A_1c      A_tot
   1     120.872   120.863    37.589  -114.656    37.598
   2    -119.685  -119.675   -40.019   113.529   -40.029
   3     120.696   120.687    36.288  -114.197    36.297
   4    -119.688  -119.677   -40.006   113.531   -40.016
   5     120.706   120.697    36.019  -114.220    36.028
   6    -120.739  -120.730   -36.461   114.390   -36.470
   7     120.696   120.687    36.288  -114.197    36.297
   8    -120.739  -120.730   -36.461   114.390   -36.470
   9     120.705   120.696    36.285  -114.222    36.294
  10    -120.709  -120.700   -36.420   114.244   -36.429
  11     120.718   120.709    36.348  -114.258    36.357
  12    -120.709  -120.700   -36.420   114.244   -36.429
  13     120.695   120.686    36.424  -114.197    36.433
  14    -120.690  -120.681   -36.221   114.187   -36.230
  15     120.718   120.709    36.348  -114.258    36.357
  16    -120.690  -120.681   -36.220   114.187   -36.229
  17     120.585   120.575    38.426  -114.204    38.435
  18    -120.713  -120.704   -36.359   114.267   -36.368
  19     120.669   120.660    36.530  -114.162    36.540
  20    -120.713  -120.704   -36.359   114.267   -36.368
  21     120.718   120.709    36.405  -114.264    36.415
  22    -120.698  -120.689   -36.345   114.222   -36.354
  23     120.669   120.660    36.530  -114.162    36.539
  24    -120.698  -120.689   -36.345   114.222   -36.354
  25     120.724   120.715    36.286  -114.277    36.295
  26    -120.684  -120.675   -36.597   114.197   -36.607
  27     120.698   120.689    36.433  -114.210    36.442
  28    -120.684  -120.675   -36.598   114.197   -36.607
  29     120.681   120.672    36.330  -114.165    36.339
  30    -120.705  -120.696   -36.209   114.226   -36.218
  31     120.698   120.689    36.433  -114.210    36.442
  32    -120.705  -120.696   -36.209   114.226   -36.218
  33     120.750   120.741    36.223  -114.357    36.232
  34    -120.740  -120.731   -36.127   114.333   -36.136
  35     120.718   120.709    36.233  -114.270    36.242
  36    -120.740  -120.731   -36.127   114.333   -36.136
  37     120.721   120.712    36.444  -114.280    36.454
  38    -120.705  -120.696   -36.493   114.237   -36.502
  39     120.718   120.709    36.233  -114.270    36.242
  40    -120.705  -120.696   -36.493   114.237   -36.502
  41     120.692   120.682    36.341  -114.192    36.350
  42    -120.721  -120.712   -36.366   114.268   -36.375
  43     120.716   120.707    36.373  -114.259    36.382
  44    -120.721  -120.712   -36.366   114.268   -36.375
  45     120.683   120.674    36.282  -114.167    36.291
  46    -120.700  -120.691   -36.322   114.217   -36.331
  47     120.716   120.707    36.373  -114.259    36.382
  48    -120.700  -120.691   -36.321   114.217   -36.330
  49     120.608   120.599    36.364  -114.088    36.373
  50    -120.751  -120.742   -36.663   114.353   -36.672
  51     120.693   120.684    36.701  -114.237    36.710
  52    -120.751  -120.741   -36.661   114.352   -36.670
  53     120.704   120.695    36.384  -114.242    36.393
  54    -120.661  -120.652   -36.309   114.117   -36.319
  55     120.693   120.684    36.701  -114.237    36.710
  56    -120.661  -120.652   -36.310   114.117   -36.319
  57     120.707   120.698    36.369  -114.244    36.378
  58    -120.714  -120.705   -36.413   114.252   -36.422
  59     120.699   120.690    36.330  -114.213    36.339
  60    -120.714  -120.705   -36.412   114.252   -36.422
[...]
 203       0.612     0.611     4.568    -0.390     4.569
 204       1.227     1.223     5.303    -1.009     5.306
 205      -1.160    -1.156    -5.833     0.905    -5.837
 206      -1.124    -1.120    -5.994     0.855    -5.997
 207       0.612     0.611     4.566    -0.389     4.567
 208       1.227     1.224     5.308    -1.009     5.311
 209      -1.085    -1.082    -6.383     0.790    -6.387
 210      -1.111    -1.107    -6.199     0.829    -6.203
 211       0.944     0.941     5.958    -0.668     5.962
 212       1.124     1.121     6.637    -0.817     6.640
 213      -1.160    -1.156    -5.832     0.905    -5.836
 214      -1.124    -1.120    -5.994     0.855    -5.998
 215       0.944     0.941     5.958    -0.668     5.962
 216       1.124     1.121     6.637    -0.817     6.641
 217       0.043     0.045     0.071     0.000     0.070

 Dipolar hyperfine coupling parameters (MHz)
  ion      A_xx      A_yy      A_zz      A_xy      A_xz      A_yz
   1      -0.546    -0.809     1.355    -0.196    -0.000     0.000
   2       0.253     0.878    -1.131    -0.288    -0.177    -0.699
   3      -0.592    -0.695     1.287    -0.102     0.147     0.113
   4       0.253     0.878    -1.131    -0.288     0.177     0.698
   5      -0.652    -0.613     1.264    -0.165     0.000    -0.000
   6       0.684     0.597    -1.281    -0.293    -0.063     0.046
   7      -0.592    -0.695     1.287    -0.102    -0.147    -0.113
   8       0.684     0.597    -1.281    -0.293     0.063    -0.046
   9      -0.625    -0.673     1.298    -0.232     0.000     0.000
  10       0.555     0.722    -1.277    -0.257    -0.013     0.008
  11      -0.644    -0.636     1.281    -0.233    -0.004     0.012
  12       0.555     0.722    -1.277    -0.257     0.013    -0.008
  13      -0.615    -0.672     1.287    -0.251     0.000     0.000
  14       0.612     0.666    -1.278    -0.221     0.050     0.004
  15      -0.644    -0.636     1.281    -0.233     0.004    -0.012
  16       0.612     0.666    -1.278    -0.221    -0.050    -0.004
  17      -1.215    -0.015     1.230    -0.222    -0.000     0.000
  18       0.603     0.711    -1.314    -0.178     0.034    -0.072
  19      -0.533    -0.695     1.228    -0.291    -0.085    -0.062
  20       0.603     0.712    -1.315    -0.178    -0.034     0.072
  21      -0.609    -0.635     1.244    -0.264     0.000     0.000
  22       0.629     0.665    -1.294    -0.245    -0.010     0.023
  23      -0.533    -0.695     1.228    -0.290     0.085     0.062
  24       0.629     0.665    -1.294    -0.245     0.010    -0.023
  25      -0.684    -0.611     1.295    -0.239    -0.000     0.000
  26       0.817     0.466    -1.283    -0.264    -0.064    -0.067
  27      -0.643    -0.629     1.272    -0.265    -0.018     0.065
  28       0.818     0.466    -1.283    -0.263     0.064     0.067
  29      -0.633    -0.627     1.261    -0.260     0.000     0.000
  30       0.654     0.628    -1.282    -0.221     0.018     0.014
  31      -0.643    -0.629     1.272    -0.265     0.018    -0.065
  32       0.653     0.628    -1.281    -0.221    -0.018    -0.014
  33      -0.620    -0.611     1.232    -0.205     0.000     0.000
  34       0.642     0.638    -1.280    -0.204     0.021     0.012
  35      -0.626    -0.636     1.261    -0.218     0.017    -0.001
  36       0.642     0.638    -1.280    -0.204    -0.022    -0.012
  37      -0.651    -0.647     1.297    -0.278     0.000     0.000
  38       0.639     0.640    -1.279    -0.285    -0.004    -0.003
  39      -0.626    -0.636     1.261    -0.218    -0.017     0.001
  40       0.639     0.640    -1.279    -0.285     0.004     0.003
  41      -0.714    -0.577     1.291    -0.256    -0.000    -0.000
  42       0.604     0.668    -1.272    -0.244     0.012    -0.025
  43      -0.665    -0.607     1.272    -0.255    -0.008     0.030
  44       0.604     0.668    -1.272    -0.244    -0.012     0.025
  45      -0.710    -0.583     1.293    -0.219     0.000     0.000
  46       0.607     0.655    -1.262    -0.246    -0.026     0.038
  47      -0.665    -0.607     1.272    -0.255     0.008    -0.030
  48       0.607     0.655    -1.262    -0.245     0.026    -0.038
  49      -0.535    -0.736     1.272    -0.356    -0.000    -0.000
  50       0.759     0.546    -1.305    -0.230    -0.119     0.011
  51      -0.577    -0.649     1.226    -0.329     0.010    -0.026
  52       0.759     0.546    -1.305    -0.229     0.119    -0.011
  53      -0.650    -0.587     1.237    -0.276     0.000     0.000
  54       0.764     0.550    -1.314    -0.172     0.066    -0.118
  55      -0.577    -0.649     1.226    -0.329    -0.010     0.026
  56       0.764     0.549    -1.314    -0.172    -0.066     0.118
  57      -0.558    -0.724     1.282    -0.276     0.000     0.000
  58       0.649     0.634    -1.284    -0.261    -0.023     0.013
  59      -0.623    -0.635     1.258    -0.258    -0.022     0.026
  60       0.649     0.634    -1.284    -0.261     0.022    -0.013
[...]
 203      -1.364    -1.298     2.662    -0.149    -0.113    -0.236
 204      -3.828     0.459     3.368    -0.481    -0.225    -0.580
 205       2.207     0.879    -3.086    -0.476     0.200    -0.010
 206       1.496     1.374    -2.870    -0.282    -0.076    -0.015
 207      -1.364    -1.298     2.662    -0.149     0.113     0.236
 208      -3.823     0.454     3.369    -0.481     0.225     0.580
 209       1.495     1.390    -2.886    -0.225     0.000    -0.000
 210       1.430     1.499    -2.929    -0.316     0.000    -0.000
 211      -1.472    -1.128     2.599    -0.334     0.183     0.131
 212      -1.369    -1.451     2.820    -0.170     0.157     0.092
 213       2.209     0.877    -3.086    -0.476    -0.200     0.010
 214       1.496     1.373    -2.869    -0.281     0.077     0.015
 215      -1.472    -1.127     2.600    -0.334    -0.183    -0.130
 216      -1.369    -1.451     2.820    -0.170    -0.157    -0.092
 217       4.153    -1.357    -2.795     0.374    -0.000     0.001

 Total hyperfine coupling parameters after diagonalization (MHz)
 (convention: |A_zz| > |A_xx| > |A_yy|)
  ion      A_xx      A_yy      A_zz     asymmetry (A_yy - A_xx)/ A_zz
   1      37.156    36.684    38.953      -0.012
   2     -39.792   -38.876   -41.419      -0.022
   3      35.766    35.525    37.601      -0.006
   4     -39.779   -38.863   -41.406      -0.022
   5      35.562    35.229    37.292      -0.009
   6     -36.125   -35.531   -37.753      -0.016
   7      35.765    35.524    37.600      -0.006
   8     -36.126   -35.531   -37.754      -0.016
   9      35.879    35.412    37.592      -0.012
  10     -36.061   -35.520   -37.707      -0.014
  11      35.950    35.484    37.638      -0.012
  12     -36.061   -35.520   -37.707      -0.014
  13      36.043    35.537    37.720      -0.013
  14     -35.812   -35.368   -37.509      -0.012
  15      35.949    35.484    37.637      -0.012
  16     -35.812   -35.367   -37.509      -0.012
  17      38.460    37.180    39.666      -0.032
  18     -35.897   -35.522   -37.686      -0.010
  19      36.226    35.619    37.773      -0.016
  20     -35.897   -35.522   -37.685      -0.010
  21      36.056    35.528    37.659      -0.014
  22     -35.953   -35.461   -37.649      -0.013
  23      36.226    35.619    37.773      -0.016
  24     -35.953   -35.460   -37.648      -0.013
  25      35.889    35.405    37.589      -0.013
  26     -36.277   -35.648   -37.895      -0.017
  27      36.069    35.540    37.716      -0.014
  28     -36.277   -35.648   -37.895      -0.017
  29      35.969    35.449    37.600      -0.014
  30     -35.798   -35.356   -37.500      -0.012
  31      36.069    35.540    37.716      -0.014
  32     -35.798   -35.355   -37.499      -0.012
  33      35.821    35.411    37.464      -0.011
  34     -35.700   -35.292   -37.416      -0.011
  35      35.829    35.394    37.504      -0.012
  36     -35.700   -35.292   -37.416      -0.011
  37      36.083    35.528    37.751      -0.015
  38     -36.148   -35.578   -37.781      -0.015
  39      35.829    35.394    37.503      -0.012
  40     -36.147   -35.578   -37.781      -0.015
  41      35.969    35.439    37.641      -0.014
  42     -35.985   -35.492   -37.647      -0.013
  43      36.002    35.489    37.654      -0.014
  44     -35.985   -35.492   -37.647      -0.013
  45      35.872    35.416    37.584      -0.012
  46     -35.946   -35.452   -37.594      -0.013
  47      36.003    35.489    37.655      -0.014
  48     -35.946   -35.452   -37.593      -0.013
  49      36.107    35.368    37.645      -0.020
  50     -36.271   -35.761   -37.984      -0.013
  51      36.427    35.766    37.936      -0.017
  52     -36.268   -35.760   -37.982      -0.013
  53      36.052    35.496    37.630      -0.015
  54     -35.862   -35.453   -37.641      -0.011
  55      36.428    35.766    37.936      -0.017
  56     -35.862   -35.453   -37.642      -0.011
  57      36.025    35.449    37.660      -0.015
  58     -36.042   -35.518   -37.706      -0.014
  59      35.968    35.453    37.598      -0.014
  60     -36.041   -35.518   -37.705      -0.014
[...]
 203       3.387     3.072     7.248      -0.044
 204       5.716     1.413     8.788      -0.490
 205      -5.110    -3.470    -8.930      -0.184
 206      -4.850    -4.274    -8.868      -0.065
 207       3.386     3.070     7.246      -0.044
 208       5.717     1.424     8.794      -0.488
 209      -5.175    -4.713    -9.273      -0.050
 210      -5.056    -4.421    -9.132      -0.070
 211       5.038     4.274     8.573      -0.089
 212       5.404     5.049     9.468      -0.038
 213      -5.111    -3.468    -8.930      -0.184
 214      -4.850    -4.274    -8.868      -0.065
 215       5.038     4.274     8.573      -0.089
 216       5.404     5.049     9.468      -0.038
 217      -2.725    -1.313     4.248       0.332

 writing wavefunctions

 total charge

[...]

 magnetization (x)

# of ion       s       p       d       tot
    1        0.019   0.018   4.576   4.612
    2       -0.019  -0.018  -4.536  -4.573
    3        0.018   0.018   4.567   4.603
    4       -0.019  -0.018  -4.536  -4.573
    5        0.017   0.018   4.568   4.603
    6       -0.018  -0.018  -4.570  -4.605
    7        0.018   0.018   4.567   4.603
    8       -0.018  -0.018  -4.570  -4.605
    9        0.018   0.018   4.568   4.603
   10       -0.018  -0.018  -4.568  -4.604
   11        0.018   0.018   4.569   4.604
   12       -0.018  -0.018  -4.568  -4.604
   13        0.018   0.018   4.567   4.603
   14       -0.018  -0.018  -4.567  -4.603
   15        0.018   0.018   4.569   4.604
   16       -0.018  -0.018  -4.567  -4.603
   17        0.019   0.019   4.564   4.602
   18       -0.018  -0.018  -4.568  -4.604
   19        0.018   0.018   4.566   4.602
   20       -0.018  -0.018  -4.568  -4.604
   21        0.018   0.018   4.569   4.604
   22       -0.018  -0.018  -4.568  -4.603
   23        0.018   0.018   4.566   4.602
   24       -0.018  -0.018  -4.568  -4.603
   25        0.018   0.018   4.569   4.604
   26       -0.018  -0.018  -4.567  -4.603
   27        0.018   0.018   4.568   4.603
   28       -0.018  -0.018  -4.567  -4.603
   29        0.018   0.018   4.567   4.602
   30       -0.018  -0.018  -4.568  -4.603
   31        0.018   0.018   4.568   4.603
   32       -0.018  -0.018  -4.568  -4.603
   33        0.018   0.018   4.570   4.606
   34       -0.018  -0.018  -4.570  -4.605
   35        0.018   0.018   4.569   4.604
   36       -0.018  -0.018  -4.570  -4.605
   37        0.018   0.018   4.569   4.604
   38       -0.018  -0.018  -4.568  -4.604
   39        0.018   0.018   4.569   4.604
   40       -0.018  -0.018  -4.568  -4.604
   41        0.018   0.018   4.567   4.603
   42       -0.018  -0.018  -4.569  -4.604
   43        0.018   0.018   4.568   4.604
   44       -0.018  -0.018  -4.569  -4.604
   45        0.018   0.018   4.567   4.602
   46       -0.018  -0.018  -4.568  -4.603
   47        0.018   0.018   4.568   4.604
   48       -0.018  -0.018  -4.568  -4.603
   49        0.018   0.018   4.564   4.599
   50       -0.018  -0.018  -4.570  -4.606
   51        0.018   0.018   4.568   4.603
   52       -0.018  -0.018  -4.570  -4.606
   53        0.018   0.018   4.568   4.604
   54       -0.018  -0.018  -4.566  -4.601
   55        0.018   0.018   4.568   4.603
   56       -0.018  -0.018  -4.566  -4.601
   57        0.018   0.018   4.568   4.603
   58       -0.018  -0.018  -4.568  -4.604
   59        0.018   0.018   4.568   4.603
   60       -0.018  -0.018  -4.568  -4.604
[...]
  203        0.002   0.011   0.000   0.012
  204        0.002   0.025   0.000   0.027
  205       -0.002  -0.023   0.000  -0.025
  206       -0.002  -0.022   0.000  -0.024
  207        0.002   0.011   0.000   0.012
  208        0.002   0.025   0.000   0.027
  209       -0.002  -0.021   0.000  -0.023
  210       -0.002  -0.021   0.000  -0.023
  211        0.002   0.017   0.000   0.019
  212        0.002   0.021   0.000   0.024
  213       -0.002  -0.023   0.000  -0.025
  214       -0.002  -0.022   0.000  -0.024
  215        0.002   0.017   0.000   0.019
  216        0.002   0.021   0.000   0.024
  217        0.001  -0.001   0.000   0.000
tot         -0.005   0.035  -0.007   0.024