 vasp.5.4.4.18Apr17-6-g9f103f2a35 (build Apr 24 2018 11:19:41) complex

 executed on         CrayXC-Intel date 2021.08.25  23:36:10

 INCAR:
 POTCAR:    PAW_PBE Mn_pv 02Aug2007
 POTCAR:    PAW_PBE F 08Apr2002
 POTCAR:    PAW_PBE H 15Jun2001

 POTCAR:    PAW_PBE Mn_pv 02Aug2007
   VRHFIN =Mn: 3p4s3d

   TITEL  = PAW_PBE Mn_pv 02Aug2007
   POMASS =   54.938; ZVAL   =   13.000    mass and valenz
   ENMAX  =  269.864; ENMIN  =  202.398 eV

 POTCAR:    PAW_PBE F 08Apr2002
   VRHFIN =F: s2p5

   TITEL  = PAW_PBE F 08Apr2002
   POMASS =   18.998; ZVAL   =    7.000    mass and valenz
   ENMAX  =  400.000; ENMIN  =  300.000 eV

 POTCAR:    PAW_PBE H 15Jun2001
   VRHFIN =H: ultrasoft test

   TITEL  = PAW_PBE H 15Jun2001
   POMASS =    1.000; ZVAL   =    1.000    mass and valenz
   ENMAX  =  250.000; ENMIN  =  200.000 eV

  PAW_PBE Mn_pv 02Aug2007               :
  PAW_PBE F 08Apr2002                   :
  PAW_PBE H 15Jun2001                   :

 POSCAR: Mn  F  H
  positions in direct lattice
  velocities in cartesian coordinates
 exchange correlation table for  LEXCH =       14
   RHO(1)=    0.500       N(1)  =     2000
   RHO(2)=  100.500       N(2)  =     4000

 ion  position               nearest neighbor table
   1  0.161  0.157  0.125-  74 2.11  79 2.12  75 2.12  73 2.14  76 2.19  80 2.19
   2  0.001  0.991  0.010- 204 2.13 170 2.15 117 2.16  75 2.18 105 2.25 182 2.28   4 3.04
   3  0.166  0.166  0.375-  79 2.08  77 2.11  78 2.11  80 2.14  83 2.14  84 2.14
   4  0.001  0.991  0.240- 208 2.13 170 2.15 109 2.16  79 2.18 105 2.25 174 2.28   2 3.04
   5  0.166  0.166  0.625-  82 2.11  81 2.11  87 2.12  83 2.12  88 2.14  84 2.14
   6  0.999  0.999  0.497- 174 2.10 212 2.11  83 2.12 109 2.14 178 2.15 113 2.16
   7  0.166  0.166  0.875-  75 2.08  85 2.11  86 2.11  76 2.14  87 2.14  88 2.14
   8  0.999  0.999  0.753- 182 2.10 216 2.11  87 2.12 117 2.14 178 2.15 113 2.16
   9  0.167  0.500  0.125-  89 2.10  90 2.10  95 2.13  91 2.13  96 2.13  92 2.13
  10  0.001  0.332  0.000- 172 2.09  91 2.11  73 2.13  85 2.13 186 2.14 198 2.15
  11  0.166  0.500  0.375-  93 2.11  94 2.11  95 2.13  96 2.13  99 2.13 100 2.13
  12  0.001  0.332  0.250- 176 2.09  95 2.11  73 2.13  77 2.13 186 2.14 190 2.15
  13  0.166  0.500  0.625-  97 2.10  98 2.11  99 2.13 103 2.13 100 2.13 104 2.13
  14  1.000  0.334  0.500- 180 2.10  99 2.11  77 2.12 190 2.13 194 2.13  81 2.13
  15  0.166  0.500  0.875- 101 2.11 102 2.11  91 2.13  92 2.13 103 2.13 104 2.13
  16  1.000  0.334  0.750- 184 2.10 103 2.11  85 2.12 198 2.13 194 2.13  81 2.13
  17  0.168  0.841  0.125- 105 2.08 106 2.14 107 2.14 111 2.14 108 2.15 112 2.15
  18  0.000  0.668  0.001- 202 2.11 188 2.11 107 2.11 214 2.13 101 2.14  89 2.14
  19  0.167  0.833  0.375- 109 2.09 110 2.11 112 2.11 115 2.13 116 2.14 111 2.14
  20  0.000  0.668  0.249- 202 2.11 192 2.11 111 2.11 206 2.13  93 2.14  89 2.14
  21  0.166  0.834  0.625- 113 2.10 114 2.12 116 2.13 120 2.13 119 2.13 115 2.13
  22  1.000  0.668  0.500- 115 2.10 196 2.10 206 2.13 210 2.13  93 2.14  97 2.14
  23  0.167  0.833  0.875- 117 2.09 118 2.11 108 2.11 119 2.13 120 2.14 107 2.14
  24  1.000  0.668  0.750- 119 2.10 200 2.10 214 2.13 210 2.13 101 2.14  97 2.14
  25  0.502  0.166  0.125- 122 2.10 121 2.11 123 2.13 127 2.13 124 2.13 128 2.13
  26  0.335  0.000  1.000- 108 2.09 123 2.10  74 2.12  86 2.13 153 2.13 165 2.14
  27  0.501  0.167  0.375- 126 2.10 125 2.11 127 2.12 128 2.13 132 2.13 131 2.14
  28  0.335  0.000  0.250- 112 2.09 127 2.10  74 2.12  78 2.13 153 2.13 157 2.14
  29  0.499  0.168  0.625- 129 2.10 130 2.10 131 2.13 135 2.13 136 2.13 132 2.13
  30  0.333  0.001  0.500- 116 2.10 131 2.11 157 2.13  78 2.13  82 2.13 161 2.13
  31  0.501  0.167  0.875- 134 2.10 133 2.11 123 2.12 124 2.13 136 2.13 135 2.14
  32  0.333  0.001  0.750- 120 2.10 135 2.11 165 2.13  86 2.13  82 2.13 161 2.13
  33  0.501  0.501  0.125- 138 2.11 137 2.11 144 2.14 140 2.14 139 2.14 143 2.14
  34  0.332  0.331  0.001-  76 2.10 121 2.13  90 2.13 139 2.13 133 2.13 102 2.14
  35  0.500  0.500  0.373- 141 2.10 142 2.11 143 2.13 144 2.13 148 2.13 147 2.14
  36  0.332  0.331  0.249-  80 2.10 121 2.13  90 2.13 143 2.13 125 2.13  94 2.14
  37  0.499  0.499  0.625- 146 2.10 145 2.11 147 2.13 151 2.13 152 2.13 148 2.13
  38  0.332  0.333  0.499-  84 2.10 147 2.10  94 2.13 125 2.13 129 2.13  98 2.14
  39  0.500  0.500  0.877- 149 2.10 150 2.11 139 2.13 140 2.13 152 2.13 151 2.14
  40  0.332  0.333  0.751-  88 2.10 151 2.10 102 2.13 133 2.13 129 2.13  98 2.14
  41  0.500  0.833  0.125- 153 2.10 154 2.10 156 2.13 160 2.13 155 2.14 159 2.14
  42  0.333  0.668  0.000- 155 2.10  92 2.11 106 2.13 118 2.13 137 2.14 149 2.14
  43  0.502  0.834  0.375- 157 2.10 158 2.11 160 2.12 164 2.13 159 2.13 163 2.14
  44  0.333  0.668  0.250- 159 2.10  96 2.11 106 2.13 110 2.13 137 2.14 141 2.14
  45  0.498  0.832  0.625- 161 2.10 162 2.11 168 2.12 164 2.12 163 2.13 167 2.13
  46  0.333  0.666  0.500- 163 2.10 100 2.10 110 2.12 145 2.13 141 2.13 114 2.14
  47  0.502  0.834  0.875- 165 2.10 166 2.11 156 2.12 168 2.13 155 2.13 167 2.14
  48  0.333  0.666  0.750- 167 2.10 104 2.10 118 2.12 145 2.13 149 2.13 114 2.14
  49  0.834  0.168  0.125- 170 2.06 169 2.10 172 2.14 176 2.14 175 2.14 171 2.14
  50  0.670  0.998  1.000- 171 2.10 156 2.11 201 2.12 213 2.13 122 2.15 134 2.16
  51  0.836  0.165  0.374- 174 2.08 176 2.13 175 2.13 173 2.13 180 2.14 179 2.14
  52  0.670  0.998  0.250- 175 2.10 160 2.11 201 2.12 205 2.13 122 2.15 126 2.16
  53  0.834  0.165  0.625- 178 2.10 177 2.11 184 2.13 180 2.13 179 2.13 183 2.13
  54  0.664  0.001  0.501- 205 2.09 179 2.11 164 2.11 130 2.12 126 2.13 209 2.13
  55  0.836  0.165  0.876- 182 2.08 172 2.13 171 2.13 181 2.13 184 2.14 183 2.14
  56  0.664  0.001  0.749- 213 2.09 183 2.11 168 2.11 130 2.12 134 2.13 209 2.13
  57  0.835  0.500  0.125- 185 2.10 186 2.10 192 2.13 188 2.13 191 2.14 187 2.14
  58  0.668  0.334  1.000- 124 2.10 187 2.10 169 2.12 150 2.13 181 2.14 138 2.14
  59  0.834  0.500  0.375- 190 2.10 189 2.11 192 2.12 191 2.13 195 2.13 196 2.14
  60  0.668  0.334  0.250- 128 2.10 191 2.10 169 2.12 142 2.13 173 2.14 138 2.14
[...]
 203  0.772  0.769  0.005-  66 2.09  71 2.12  65 2.29
 204  0.880  0.915  0.980-  71 2.04   2 2.13  65 2.19
 205  0.721  0.929  0.379-  54 2.09  67 2.12  52 2.13
 206  0.934  0.732  0.375-  67 2.13  22 2.13  20 2.13
 207  0.772  0.769  0.245-  68 2.09  67 2.12  65 2.29
 208  0.880  0.915  0.270-  67 2.04   4 2.13  65 2.19
 209  0.730  0.935  0.625-  69 2.11  54 2.13  56 2.13
 210  0.935  0.732  0.625-  69 2.12  24 2.13  22 2.13
 211  0.767  0.765  0.504-  70 2.09  67 2.11  69 2.13
 212  0.897  0.898  0.500-  69 2.11   6 2.11  67 2.16
 213  0.721  0.929  0.871-  56 2.09  71 2.12  50 2.13
 214  0.934  0.732  0.875-  71 2.13  24 2.13  18 2.13
 215  0.767  0.765  0.746-  72 2.09  71 2.11  69 2.13
 216  0.897  0.898  0.750-  69 2.11   8 2.11  71 2.16
 217  0.975  0.902  0.125-  65 1.96

IMPORTANT INFORMATION: All symmetrisations will be switched off!
NOSYMM: (Re-)initialisation of all symmetry stuff for point group C_1.

 KPOINTS: KPOINTS created by Atomic Simulation Env

Automatic generation of k-mesh.
Space group operators:
 irot       det(A)        alpha          n_x          n_y          n_z        tau_x        tau_y        tau_z
    1     1.000000     0.000000     1.000000     0.000000     0.000000     0.000000     0.000000     0.000000

 Subroutine IBZKPT returns following result:

 Found      4 irreducible k-points:

 Following reciprocal coordinates:
            Coordinates               Weight
  0.250000  0.250000  0.250000      2.000000
 -0.250000  0.250000  0.250000      2.000000
  0.250000 -0.250000  0.250000      2.000000
 -0.250000 -0.250000  0.250000      2.000000

 Following cartesian coordinates:
            Coordinates               Weight
  0.017066  0.017066  0.018935      2.000000
 -0.017066  0.017066  0.018935      2.000000
  0.017066 -0.017066  0.018935      2.000000
 -0.017066 -0.017066  0.018935      2.000000

 SYSTEM =  unknown system
 POSCAR =  Mn  F  H

 Startparameter for this run:
   NWRITE =      2    write-flag & timer
   PREC   = normal    normal or accurate (medium, high low for compatibility)
   ISTART =      1    job   : 0-new  1-cont  2-samecut
   ICHARG =      1    charge: 1-file 2-atom 10-const
   ISPIN  =      2    spin polarized calculation?
   LNONCOLLINEAR =      F non collinear calculations
   LSORBIT =      F    spin-orbit coupling
   INIWAV =      1    electr: 0-lowe 1-rand  2-diag
   LASPH  =      T    aspherical Exc in radial PAW
   METAGGA=      F    non-selfconsistent MetaGGA calc.

 Electronic Relaxation 1
   ENCUT  =  700.0 eV  51.45 Ry    7.17 a.u.  31.60 31.60 28.48*2*pi/ulx,y,z
   ENINI  =  700.0     initial cutoff
   ENAUG  =  613.6 eV  augmentation charge cutoff
   NELM   =     60;   NELMIN=  2; NELMDL=  0     # of ELM steps
   EDIFF  = 0.1E-06   stopping-criterion for ELM
   LREAL  =      F    real-space projection
   NLSPLINE    = F    spline interpolate recip. space projectors
   LCOMPAT=      F    compatible to vasp.4.4
   GGA_COMPAT  = T    GGA compatible to vasp.4.4-vasp.4.6
   LMAXPAW     = -100 max onsite density
   LMAXMIX     =    4 max onsite mixed and CHGCAR
   VOSKOWN=      0    Vosko Wilk Nusair interpolation
   ROPT   =    0.00000   0.00000   0.00000
 Ionic relaxation
   EDIFFG = -.5E-02   stopping-criterion for IOM
   NSW    =      0    number of steps for IOM
   NBLOCK =      1;   KBLOCK =      1    inner block; outer block
   IBRION =     -1    ionic relax: 0-MD 1-quasi-New 2-CG
   NFREE  =      0    steps in history (QN), initial steepest desc. (CG)
   ISIF   =      2    stress and relaxation
   IWAVPR =     10    prediction:  0-non 1-charg 2-wave 3-comb
   ISYM   =      0    0-nonsym 1-usesym 2-fastsym
   LCORR  =      T    Harris-Foulkes like correction to forces

   POTIM  = 0.5000    time-step for ionic-motion
   TEIN   =    0.0    initial temperature
   TEBEG  =    0.0;   TEEND  =   0.0 temperature during run
   SMASS  =  -3.00    Nose mass-parameter (am)
   estimated Nose-frequenzy (Omega)   =  0.10E-29 period in steps =****** mass=  -0.490E-26a.u.
   SCALEE = 1.0000    scale energy and forces
   NPACO  =    256;   APACO  = 16.0  distance and # of slots for P.C.
   PSTRESS=    0.0 pullay stress

  Mass of Ions in am
   POMASS =  54.94 19.00  1.00
  Ionic Valenz
   ZVAL   =  13.00  7.00  1.00
  Atomic Wigner-Seitz radii
  virtual crystal weights
   VCA    =   1.00  1.00  1.00
   NELECT =    1946.0000    total number of electrons
   NUPDOWN=      -1.0000    fix difference up-down

 DOS related values:
   EMIN   =  10.00;   EMAX   =-10.00  energy-range for DOS
   EFERMI =   0.00
   ISMEAR =     0;   SIGMA  =   0.01  broadening in eV -4-tet -1-fermi 0-gaus

 Electronic relaxation 2 (details)
   IALGO  =     68    algorithm
   LDIAG  =      T    sub-space diagonalisation (order eigenvalues)
   LSUBROT=      F    optimize rotation matrix (better conditioning)
   TURBO    =      0    0=normal 1=particle mesh
   IRESTART =      0    0=no restart 2=restart with 2 vectors
   NREBOOT  =      0    no. of reboots
   NMIN     =      0    reboot dimension
   EREF     =   0.00    reference energy to select bands
[...]

 Fermi contact (isotropic) hyperfine coupling parameter (MHz)
  ion      A_pw      A_1PS     A_1AE     A_1c      A_tot
   1     122.028   122.019    38.640  -116.408    38.649
   2    -121.219  -121.209   -41.525   115.682   -41.535
   3     121.870   121.861    37.637  -115.949    37.646
   4    -121.224  -121.213   -41.490   115.686   -41.500
   5     121.887   121.878    37.349  -115.983    37.358
   6    -121.923  -121.914   -37.661   116.152   -37.670
   7     121.870   121.861    37.635  -115.949    37.645
   8    -121.923  -121.914   -37.662   116.152   -37.672
   9     121.888   121.879    37.582  -115.990    37.591
  10    -121.896  -121.887   -37.677   116.021   -37.686
  11     121.900   121.891    37.616  -116.026    37.625
  12    -121.896  -121.887   -37.677   116.021   -37.686
  13     121.880   121.870    37.682  -115.968    37.691
  14    -121.876  -121.867   -37.530   115.957   -37.539
  15     121.900   121.891    37.615  -116.026    37.624
  16    -121.876  -121.867   -37.529   115.957   -37.538
  17     121.805   121.796    39.428  -116.059    39.438
  18    -121.892  -121.883   -37.721   116.031   -37.730
  19     121.858   121.849    37.763  -115.934    37.773
  20    -121.892  -121.883   -37.720   116.031   -37.729
  21     121.897   121.888    37.658  -116.025    37.667
  22    -121.885  -121.876   -37.618   115.999   -37.627
  23     121.858   121.849    37.763  -115.934    37.772
  24    -121.885  -121.876   -37.617   115.999   -37.626
  25     121.907   121.898    37.578  -116.047    37.587
  26    -121.875  -121.866   -37.827   115.978   -37.836
  27     121.882   121.873    37.685  -115.979    37.694
  28    -121.875  -121.866   -37.827   115.978   -37.837
  29     121.871   121.861    37.586  -115.942    37.595
  30    -121.889  -121.880   -37.517   115.997   -37.526
  31     121.882   121.873    37.685  -115.979    37.694
  32    -121.889  -121.880   -37.516   115.997   -37.526
  33     121.924   121.915    37.522  -116.117    37.531
  34    -121.917  -121.908   -37.475   116.094   -37.484
  35     121.899   121.890    37.547  -116.035    37.556
  36    -121.917  -121.908   -37.475   116.093   -37.485
  37     121.902   121.893    37.693  -116.043    37.702
  38    -121.888  -121.879   -37.720   116.003   -37.730
  39     121.899   121.890    37.547  -116.036    37.556
  40    -121.888  -121.879   -37.720   116.003   -37.729
  41     121.880   121.870    37.618  -115.968    37.627
  42    -121.902  -121.893   -37.632   116.038   -37.641
  43     121.899   121.890    37.631  -116.027    37.640
  44    -121.902  -121.893   -37.632   116.038   -37.641
  45     121.870   121.861    37.582  -115.942    37.591
  46    -121.885  -121.875   -37.610   115.987   -37.619
  47     121.899   121.890    37.632  -116.028    37.641
  48    -121.885  -121.875   -37.609   115.987   -37.618
  49     121.833   121.823    37.497  -115.911    37.506
  50    -121.928  -121.918   -37.890   116.114   -37.899
  51     121.881   121.872    37.889  -116.015    37.899
  52    -121.927  -121.918   -37.887   116.113   -37.896
  53     121.888   121.879    37.654  -116.013    37.663
  54    -121.851  -121.842   -37.621   115.893   -37.631
  55     121.881   121.872    37.890  -116.015    37.899
  56    -121.851  -121.841   -37.623   115.893   -37.633
  57     121.897   121.888    37.628  -116.027    37.638
  58    -121.897  -121.888   -37.670   116.022   -37.679
  59     121.882   121.873    37.611  -115.981    37.620
  60    -121.897  -121.888   -37.670   116.022   -37.679
[...]
 203       0.518     0.517     4.103    -0.319     4.104
 204       0.995     0.993     4.729    -0.798     4.731
 205      -0.906    -0.902    -5.103     0.680    -5.106
 206      -0.885    -0.882    -5.243     0.647    -5.246
 207       0.517     0.517     4.100    -0.319     4.100
 208       0.996     0.994     4.740    -0.799     4.743
 209      -0.871    -0.868    -5.559     0.613    -5.562
 210      -0.875    -0.872    -5.374     0.629    -5.377
 211       0.764     0.761     5.247    -0.520     5.250
 212       0.914     0.911     5.789    -0.646     5.792
 213      -0.906    -0.902    -5.101     0.680    -5.105
 214      -0.885    -0.882    -5.244     0.647    -5.247
 215       0.764     0.762     5.247    -0.520     5.250
 216       0.914     0.911     5.789    -0.646     5.792
 217       0.129     0.131     0.212     0.000     0.211

 Dipolar hyperfine coupling parameters (MHz)
  ion      A_xx      A_yy      A_zz      A_xy      A_xz      A_yz
   1      -0.567    -0.842     1.409    -0.256    -0.000     0.000
   2       0.375     0.880    -1.256    -0.385    -0.105    -0.461
   3      -0.624    -0.735     1.359    -0.157     0.160     0.117
   4       0.374     0.882    -1.256    -0.385     0.107     0.460
   5      -0.686    -0.653     1.339    -0.216     0.000    -0.000
   6       0.713     0.634    -1.347    -0.329    -0.057     0.049
   7      -0.625    -0.735     1.359    -0.157    -0.160    -0.117
   8       0.714     0.633    -1.347    -0.329     0.057    -0.050
   9      -0.655    -0.709     1.363    -0.297    -0.000    -0.000
  10       0.585     0.757    -1.342    -0.312    -0.014     0.011
  11      -0.678    -0.673     1.351    -0.283    -0.006     0.013
  12       0.585     0.757    -1.342    -0.312     0.014    -0.011
  13      -0.650    -0.706     1.356    -0.300     0.000     0.000
  14       0.648     0.705    -1.353    -0.271     0.052     0.002
  15      -0.678    -0.673     1.351    -0.282     0.006    -0.013
  16       0.648     0.705    -1.353    -0.271    -0.052    -0.002
  17      -1.265    -0.023     1.288    -0.191    -0.000     0.000
  18       0.630     0.755    -1.384    -0.236     0.054    -0.056
  19      -0.573    -0.725     1.297    -0.342    -0.077    -0.062
  20       0.630     0.755    -1.384    -0.236    -0.054     0.056
  21      -0.647    -0.672     1.319    -0.304    -0.000     0.000
  22       0.663     0.696    -1.359    -0.300    -0.004     0.021
  23      -0.573    -0.725     1.298    -0.342     0.077     0.062
  24       0.663     0.696    -1.359    -0.300     0.003    -0.021
  25      -0.717    -0.643     1.360    -0.302    -0.000     0.000
  26       0.852     0.497    -1.350    -0.320    -0.064    -0.070
  27      -0.677    -0.663     1.341    -0.316    -0.018     0.064
  28       0.853     0.497    -1.350    -0.320     0.064     0.070
  29      -0.668    -0.663     1.330    -0.312     0.000     0.000
  30       0.690     0.664    -1.354    -0.274     0.019     0.011
  31      -0.677    -0.663     1.341    -0.316     0.018    -0.064
  32       0.690     0.664    -1.354    -0.274    -0.019    -0.011
  33      -0.656    -0.647     1.303    -0.259     0.000     0.000
  34       0.675     0.672    -1.348    -0.263     0.021     0.015
  35      -0.660    -0.670     1.330    -0.274     0.016    -0.006
  36       0.675     0.672    -1.348    -0.263    -0.021    -0.015
  37      -0.684    -0.679     1.363    -0.330     0.000     0.000
  38       0.672     0.673    -1.345    -0.333    -0.004    -0.005
  39      -0.660    -0.670     1.330    -0.274    -0.016     0.006
  40       0.672     0.673    -1.345    -0.333     0.004     0.005
  41      -0.753    -0.605     1.358    -0.317    -0.000    -0.000
  42       0.636     0.697    -1.333    -0.296     0.010    -0.025
  43      -0.701    -0.640     1.341    -0.305    -0.014     0.022
  44       0.636     0.697    -1.333    -0.296    -0.010     0.025
  45      -0.741    -0.623     1.364    -0.270     0.000     0.000
  46       0.646     0.688    -1.335    -0.301    -0.027     0.037
  47      -0.701    -0.640     1.341    -0.305     0.014    -0.022
  48       0.646     0.688    -1.334    -0.301     0.027    -0.037
  49      -0.556    -0.760     1.316    -0.421    -0.000    -0.000
  50       0.798     0.571    -1.369    -0.288    -0.120     0.019
  51      -0.612    -0.682     1.295    -0.373     0.009    -0.024
  52       0.798     0.571    -1.369    -0.287     0.120    -0.019
  53      -0.686    -0.628     1.314    -0.322     0.000     0.000
  54       0.794     0.594    -1.388    -0.224     0.063    -0.119
  55      -0.612    -0.683     1.295    -0.374    -0.009     0.024
  56       0.795     0.594    -1.388    -0.224    -0.063     0.120
  57      -0.586    -0.761     1.347    -0.336     0.000    -0.000
  58       0.679     0.668    -1.347    -0.317    -0.022     0.011
  59      -0.656    -0.674     1.330    -0.308    -0.030     0.022
  60       0.679     0.668    -1.347    -0.317     0.021    -0.011
[...]
 203      -1.227    -1.152     2.380    -0.121    -0.082    -0.192
 204      -3.492     0.501     2.991    -0.410    -0.135    -0.463
 205       2.015     0.768    -2.783    -0.428     0.167    -0.021
 206       1.344     1.228    -2.572    -0.260    -0.069    -0.022
 207      -1.227    -1.153     2.380    -0.121     0.082     0.192
 208      -3.480     0.489     2.992    -0.410     0.134     0.462
 209       1.345     1.248    -2.593    -0.207     0.000    -0.000
 210       1.295     1.341    -2.636    -0.299     0.000    -0.000
 211      -1.348    -1.025     2.373    -0.299     0.147     0.103
 212      -1.246    -1.301     2.547    -0.160     0.140     0.076
 213       2.020     0.764    -2.784    -0.429    -0.168     0.021
 214       1.345     1.226    -2.571    -0.259     0.069     0.022
 215      -1.350    -1.023     2.373    -0.299    -0.147    -0.103
 216      -1.246    -1.301     2.547    -0.160    -0.140    -0.076
 217       4.222    -1.595    -2.627     0.334    -0.000     0.004

 Total hyperfine coupling parameters after diagonalization (MHz)
 (convention: |A_zz| > |A_xx| > |A_yy|)
  ion      A_xx      A_yy      A_zz     asymmetry (A_yy - A_xx)/ A_zz
   1      38.236    37.654    40.058      -0.015
   2     -41.308   -40.392   -42.906      -0.021
   3      37.131    36.784    39.024      -0.009
   4     -41.274   -40.356   -42.870      -0.021
   5      36.905    36.471    38.697      -0.011
   6     -37.328   -36.664   -39.020      -0.017
   7      37.129    36.783    39.022      -0.009
   8     -37.329   -36.665   -39.021      -0.017
   9      37.207    36.611    38.954      -0.015
  10     -37.339   -36.691   -39.029      -0.017
  11      37.232    36.667    38.976      -0.014
  12     -37.339   -36.691   -39.029      -0.017
  13      37.314    36.712    39.048      -0.015
  14     -37.134   -36.590   -38.894      -0.014
  15      37.231    36.666    38.975      -0.014
  16     -37.133   -36.589   -38.893      -0.014
  17      39.443    38.145    40.725      -0.032
  18     -37.282   -36.791   -39.117      -0.013
  19      37.474    36.770    39.075      -0.018
  20     -37.281   -36.791   -39.116      -0.013
  21      37.312    36.704    38.986      -0.016
  22     -37.248   -36.648   -38.986      -0.015
  23      37.473    36.769    39.074      -0.018
  24     -37.247   -36.647   -38.986      -0.015
  25      37.211    36.603    38.946      -0.016
  26     -37.522   -36.795   -39.191      -0.019
  27      37.338    36.708    39.037      -0.016
  28     -37.523   -36.796   -39.192      -0.019
  29      37.242    36.618    38.926      -0.016
  30     -37.123   -36.575   -38.880      -0.014
  31      37.337    36.707    39.037      -0.016
  32     -37.122   -36.575   -38.880      -0.014
  33      37.138    36.621    38.834      -0.013
  34     -37.072   -36.547   -38.832      -0.014
  35      37.165    36.618    38.886      -0.014
  36     -37.073   -36.548   -38.833      -0.014
  37      37.350    36.691    39.065      -0.017
  38     -37.390   -36.724   -39.075      -0.017
  39      37.165    36.617    38.886      -0.014
  40     -37.389   -36.723   -39.074      -0.017
  41      37.273    36.623    38.985      -0.017
  42     -37.272   -36.677   -38.975      -0.015
  43      37.276    36.663    38.982      -0.016
  44     -37.272   -36.677   -38.975      -0.015
  45      37.186    36.632    38.955      -0.014
  46     -37.253   -36.649   -38.954      -0.016
  47      37.277    36.663    38.983      -0.016
  48     -37.253   -36.649   -38.954      -0.016
  49      37.281    36.415    38.822      -0.022
  50     -37.522   -36.900   -39.275      -0.016
  51      37.626    36.876    39.194      -0.019
  52     -37.519   -36.898   -39.272      -0.016
  53      37.330    36.683    38.977      -0.017
  54     -37.180   -36.685   -39.027      -0.013
  55      37.627    36.877    39.194      -0.019
  56     -37.182   -36.687   -39.029      -0.013
  57      37.312    36.617    38.984      -0.018
  58     -37.323   -36.689   -39.026      -0.016
  59      37.263    36.647    38.951      -0.016
  60     -37.323   -36.688   -39.026      -0.016
[...]
 203       3.038     2.779     6.495      -0.040
 204       5.195     1.193     7.806      -0.513
 205      -4.470    -2.952    -7.895      -0.192
 206      -4.225    -3.694    -7.819      -0.068
 207       3.034     2.775     6.492      -0.040
 208       5.196     1.216     7.818      -0.509
 209      -4.478    -4.053    -8.155      -0.052
 210      -4.359    -3.759    -8.013      -0.075
 211       4.403     3.716     7.632      -0.090
 212       4.680     4.350     8.345      -0.039
 213      -4.473    -2.946    -7.894      -0.193
 214      -4.226    -3.695    -7.819      -0.068
 215       4.404     3.715     7.631      -0.090
 216       4.680     4.351     8.346      -0.039
 217      -2.416    -1.404     4.452       0.227

 writing wavefunctions

 total charge

[...]

 magnetization (x)

# of ion       s       p       d       tot
    1        0.019   0.019   4.634   4.672
    2       -0.020  -0.019  -4.608  -4.647
    3        0.018   0.019   4.627   4.664
    4       -0.020  -0.019  -4.608  -4.647
    5        0.018   0.019   4.628   4.664
    6       -0.019  -0.018  -4.629  -4.666
    7        0.018   0.019   4.627   4.664
    8       -0.019  -0.018  -4.629  -4.666
    9        0.018   0.019   4.628   4.665
   10       -0.018  -0.019  -4.628  -4.665
   11        0.018   0.019   4.628   4.665
   12       -0.018  -0.019  -4.628  -4.665
   13        0.018   0.019   4.627   4.664
   14       -0.018  -0.019  -4.627  -4.664
   15        0.018   0.019   4.628   4.665
   16       -0.018  -0.019  -4.627  -4.664
   17        0.019   0.019   4.625   4.664
   18       -0.018  -0.019  -4.628  -4.665
   19        0.018   0.019   4.626   4.664
   20       -0.018  -0.019  -4.628  -4.665
   21        0.018   0.019   4.628   4.665
   22       -0.018  -0.019  -4.628  -4.665
   23        0.018   0.019   4.626   4.664
   24       -0.018  -0.019  -4.628  -4.665
   25        0.018   0.018   4.628   4.665
   26       -0.019  -0.019  -4.627  -4.664
   27        0.018   0.019   4.627   4.665
   28       -0.019  -0.019  -4.627  -4.664
   29        0.018   0.019   4.627   4.664
   30       -0.018  -0.019  -4.628  -4.665
   31        0.018   0.019   4.627   4.665
   32       -0.018  -0.019  -4.628  -4.665
   33        0.018   0.018   4.630   4.666
   34       -0.018  -0.018  -4.629  -4.666
   35        0.018   0.019   4.628   4.665
   36       -0.018  -0.018  -4.629  -4.666
   37        0.018   0.019   4.628   4.665
   38       -0.018  -0.019  -4.628  -4.665
   39        0.018   0.019   4.628   4.665
   40       -0.018  -0.019  -4.628  -4.665
   41        0.018   0.019   4.627   4.664
   42       -0.018  -0.019  -4.628  -4.665
   43        0.018   0.019   4.628   4.665
   44       -0.018  -0.019  -4.628  -4.665
   45        0.018   0.019   4.627   4.664
   46       -0.018  -0.019  -4.628  -4.665
   47        0.018   0.019   4.628   4.665
   48       -0.018  -0.019  -4.628  -4.665
   49        0.018   0.018   4.625   4.662
   50       -0.019  -0.019  -4.629  -4.667
   51        0.019   0.019   4.628   4.665
   52       -0.019  -0.019  -4.629  -4.667
   53        0.018   0.019   4.628   4.665
   54       -0.018  -0.019  -4.626  -4.663
   55        0.019   0.019   4.628   4.665
   56       -0.018  -0.019  -4.626  -4.663
   57        0.018   0.018   4.628   4.665
   58       -0.018  -0.019  -4.628  -4.665
   59        0.018   0.019   4.627   4.664
   60       -0.018  -0.019  -4.628  -4.665
[...]
  203        0.002   0.009   0.000   0.010
  204        0.001   0.020   0.000   0.021
  205       -0.002  -0.017   0.000  -0.019
  206       -0.002  -0.016   0.000  -0.018
  207        0.001   0.009   0.000   0.010
  208        0.001   0.020   0.000   0.021
  209       -0.002  -0.016   0.000  -0.018
  210       -0.002  -0.016   0.000  -0.018
  211        0.002   0.013   0.000   0.015
  212        0.002   0.017   0.000   0.019
  213       -0.002  -0.017   0.000  -0.019
  214       -0.002  -0.016   0.000  -0.018
  215        0.002   0.013   0.000   0.015
  216        0.002   0.017   0.000   0.019
  217        0.003  -0.000   0.000   0.002
tot         -0.002   0.028  -0.006   0.020