 vasp.5.4.4.18Apr17-6-g9f103f2a35 (build Nov 21 2017 18:25:41) complex

 executed on         CrayXC-Intel date 2022.04.10  16:39:49

 INCAR:
 POTCAR:    PAW_PBE Mn_pv 02Aug2007
 POTCAR:    PAW_PBE F 08Apr2002
 POTCAR:    PAW_PBE H 15Jun2001

 POTCAR:    PAW_PBE Mn_pv 02Aug2007
   VRHFIN =Mn: 3p4s3d

   TITEL  = PAW_PBE Mn_pv 02Aug2007
   POMASS =   54.938; ZVAL   =   13.000    mass and valenz
   ENMAX  =  269.864; ENMIN  =  202.398 eV

 POTCAR:    PAW_PBE F 08Apr2002
   VRHFIN =F: s2p5

   TITEL  = PAW_PBE F 08Apr2002
   POMASS =   18.998; ZVAL   =    7.000    mass and valenz
   ENMAX  =  400.000; ENMIN  =  300.000 eV

 POTCAR:    PAW_PBE H 15Jun2001
   VRHFIN =H: ultrasoft test

   TITEL  = PAW_PBE H 15Jun2001
   POMASS =    1.000; ZVAL   =    1.000    mass and valenz
   ENMAX  =  250.000; ENMIN  =  200.000 eV

  PAW_PBE Mn_pv 02Aug2007               :
  PAW_PBE F 08Apr2002                   :
  PAW_PBE H 15Jun2001                   :

 POSCAR: Mn  F  H
  positions in direct lattice
  velocities in cartesian coordinates
 exchange correlation table for  LEXCH =       14
   RHO(1)=    0.500       N(1)  =     2000
   RHO(2)=  100.500       N(2)  =     4000

 ion  position               nearest neighbor table
   1  0.172  0.169  0.130-  73 2.07  80 2.08  74 2.09  76 2.10  79 2.10  75 2.37
   2  0.988  0.995  0.000- 204 2.02 182 2.08 170 2.08 105 2.14 117 2.14  75 2.26
   3  0.167  0.165  0.376-  77 2.09  78 2.09  83 2.11  84 2.12  80 2.13  79 2.15
   4  0.998  0.000  0.250- 208 2.10 174 2.11  79 2.11 109 2.12 170 2.14 105 2.14
   5  0.167  0.165  0.624-  81 2.09  82 2.09  83 2.11  84 2.12  88 2.13  87 2.15
   6  0.999  1.000  0.500- 212 2.08  83 2.09 174 2.13 178 2.13 113 2.13 109 2.13
   7  0.172  0.169  0.870-  85 2.07  88 2.08  86 2.09  76 2.10  87 2.10  75 2.37
   8  0.998  0.000  0.750- 216 2.10 178 2.11  87 2.11 113 2.12 182 2.14 117 2.14
   9  0.167  0.500  0.125-  89 2.10  90 2.10  96 2.12  95 2.12  91 2.13  92 2.13
  10  0.001  0.333  0.000-  91 2.09 172 2.09 186 2.12 198 2.12  85 2.14  73 2.14
  11  0.167  0.500  0.375-  93 2.09  94 2.09 100 2.13  99 2.13  95 2.14  96 2.14
  12  0.001  0.332  0.250- 176 2.09  95 2.09 186 2.12  77 2.12 190 2.13  73 2.17
  13  0.167  0.500  0.625-  97 2.09  98 2.09  99 2.13 100 2.13 104 2.14 103 2.14
  14  0.001  0.333  0.500- 180 2.09  99 2.09 190 2.13 194 2.13  81 2.14  77 2.14
  15  0.167  0.500  0.875- 101 2.10 102 2.10 103 2.12 104 2.12  92 2.13  91 2.13
  16  0.001  0.332  0.750- 184 2.09 103 2.09 198 2.12  81 2.12 194 2.13  85 2.17
  17  0.161  0.831  0.130- 106 2.07 111 2.08 105 2.09 107 2.10 112 2.10 108 2.37
  18  0.001  0.667  0.000- 188 2.09  89 2.12 101 2.12 202 2.12 214 2.12 107 2.15
  19  0.167  0.835  0.376- 110 2.09 109 2.09 116 2.11 115 2.12 111 2.13 112 2.15
  20  0.999  0.666  0.251- 192 2.08 111 2.10  93 2.12 206 2.12  89 2.13 202 2.14
  21  0.167  0.835  0.624- 114 2.09 113 2.09 116 2.11 115 2.12 119 2.13 120 2.15
  22  0.000  0.667  0.500- 196 2.09 115 2.10  97 2.13  93 2.13 206 2.13 210 2.13
  23  0.161  0.831  0.870- 118 2.07 119 2.08 117 2.09 107 2.10 120 2.10 108 2.37
  24  0.999  0.666  0.749- 200 2.08 119 2.10  97 2.12 210 2.12 101 2.13 214 2.14
  25  0.504  0.170  0.127- 122 2.10 128 2.10 121 2.10 124 2.12 123 2.12 127 2.14
  26  0.346  0.005  0.000- 123 2.02 153 2.08 165 2.08  86 2.14  74 2.14 108 2.26
  27  0.500  0.167  0.375- 126 2.09 125 2.09 132 2.12 131 2.13 128 2.13 127 2.14
  28  0.335  1.000  0.250- 127 2.10 157 2.11 112 2.11  78 2.12 153 2.14  74 2.14
  29  0.500  0.167  0.625- 130 2.09 129 2.09 132 2.12 131 2.13 136 2.13 135 2.14
  30  0.335  0.000  0.500- 131 2.08 116 2.09 161 2.13 157 2.13  78 2.13  82 2.13
  31  0.504  0.170  0.873- 134 2.10 136 2.10 133 2.10 124 2.12 123 2.12 135 2.14
  32  0.335  1.000  0.750- 135 2.10 161 2.11 120 2.11  82 2.12 165 2.14  86 2.14
  33  0.499  0.500  0.125- 138 2.10 137 2.10 143 2.12 140 2.12 144 2.12 139 2.13
  34  0.333  0.333  0.000- 139 2.09  90 2.12 102 2.12 133 2.12 121 2.12  76 2.15
  35  0.499  0.501  0.375- 142 2.10 141 2.10 148 2.12 147 2.13 144 2.13 143 2.13
  36  0.334  0.334  0.251- 143 2.08  80 2.10  94 2.12 125 2.12  90 2.13 121 2.14
  37  0.499  0.501  0.625- 146 2.10 145 2.10 148 2.12 147 2.13 152 2.13 151 2.13
  38  0.333  0.333  0.500- 147 2.09  84 2.10  94 2.13  98 2.13 125 2.13 129 2.13
  39  0.499  0.500  0.875- 150 2.10 149 2.10 151 2.12 140 2.12 152 2.12 139 2.13
  40  0.334  0.334  0.749- 151 2.08  88 2.10  98 2.12 129 2.12 102 2.13 133 2.14
  41  0.501  0.832  0.125- 154 2.09 153 2.12 160 2.12 159 2.12 155 2.13 156 2.13
  42  0.333  0.667  0.000-  92 2.09 155 2.09 149 2.12 137 2.12 106 2.14 118 2.14
  43  0.501  0.833  0.375- 158 2.09 157 2.10 164 2.13 163 2.13 160 2.13 159 2.13
  44  0.332  0.668  0.250- 159 2.09  96 2.09 137 2.12 110 2.12 141 2.13 106 2.17
  45  0.501  0.833  0.625- 162 2.09 161 2.10 164 2.13 163 2.13 168 2.13 167 2.13
  46  0.333  0.667  0.500- 163 2.09 100 2.09 141 2.13 145 2.13 110 2.14 114 2.14
  47  0.501  0.832  0.875- 166 2.09 165 2.12 168 2.12 167 2.12 155 2.13 156 2.13
  48  0.332  0.668  0.750- 167 2.09 104 2.09 149 2.12 114 2.12 145 2.13 118 2.17
  49  0.832  0.168  0.125- 169 2.09 170 2.12 175 2.12 176 2.12 172 2.13 171 2.13
  50  0.667  1.000  0.000- 156 2.10 171 2.10 122 2.13 213 2.13 134 2.13 201 2.13
  51  0.833  0.167  0.375- 173 2.09 174 2.10 179 2.13 180 2.13 175 2.13 176 2.13
  52  0.667  1.000  0.250- 175 2.10 160 2.10 205 2.12 126 2.12 201 2.13 122 2.13
  53  0.833  0.167  0.625- 177 2.09 178 2.10 179 2.13 180 2.13 183 2.13 184 2.13
  54  0.667  1.000  0.500- 179 2.10 164 2.10 126 2.13 209 2.13 130 2.13 205 2.13
  55  0.832  0.168  0.875- 181 2.09 182 2.12 183 2.12 184 2.12 172 2.13 171 2.13
  56  0.667  1.000  0.750- 183 2.10 168 2.10 130 2.12 209 2.12 213 2.13 134 2.13
  57  0.835  0.499  0.125- 185 2.10 186 2.10 192 2.12 187 2.12 191 2.12 188 2.13
  58  0.667  0.336  0.000- 124 2.08 187 2.08 138 2.13 150 2.13 181 2.13 169 2.13
  59  0.834  0.499  0.375- 189 2.10 190 2.10 195 2.12 196 2.13 191 2.13 192 2.13
  60  0.667  0.335  0.251- 191 2.08 128 2.09 142 2.12 173 2.13 138 2.13 169 2.13
[...]
 203  0.768  0.764  0.000-  66 2.08  65 2.12  71 2.12
 204  0.890  0.896  0.000-   2 2.02  71 2.12  65 2.12
 205  0.731  0.934  0.375-  67 2.09  52 2.12  54 2.13
 206  0.935  0.733  0.375-  67 2.09  20 2.12  22 2.13
 207  0.768  0.765  0.252-  68 2.09  65 2.10  67 2.13
 208  0.896  0.900  0.249-   4 2.10  67 2.14  65 2.14
 209  0.731  0.934  0.625-  69 2.09  56 2.12  54 2.13
 210  0.935  0.733  0.625-  69 2.09  24 2.12  22 2.13
 211  0.768  0.767  0.500-  70 2.09  67 2.12  69 2.12
 212  0.898  0.899  0.500-   6 2.08  69 2.13  67 2.13
 213  0.729  0.932  0.875-  71 2.10  50 2.13  56 2.13
 214  0.937  0.733  0.875-  71 2.10  18 2.12  24 2.14
 215  0.768  0.765  0.748-  72 2.09  71 2.10  69 2.13
 216  0.896  0.900  0.751-   8 2.10  69 2.14  71 2.14
 217  0.167  1.000  0.000-  75 1.16 108 1.16

IMPORTANT INFORMATION: All symmetrisations will be switched off!
NOSYMM: (Re-)initialisation of all symmetry stuff for point group C_1.

 KPOINTS: KPOINTS created by Atomic Simulation Env

Automatic generation of k-mesh.
Space group operators:
 irot       det(A)        alpha          n_x          n_y          n_z        tau_x        tau_y        tau_z
    1     1.000000     0.000000     1.000000     0.000000     0.000000     0.000000     0.000000     0.000000

 Subroutine IBZKPT returns following result:

 Found      4 irreducible k-points:

 Following reciprocal coordinates:
            Coordinates               Weight
  0.250000  0.250000  0.250000      2.000000
 -0.250000  0.250000  0.250000      2.000000
  0.250000 -0.250000  0.250000      2.000000
 -0.250000 -0.250000  0.250000      2.000000

 Following cartesian coordinates:
            Coordinates               Weight
  0.017111  0.017111  0.018996      2.000000
 -0.017111  0.017111  0.018996      2.000000
  0.017111 -0.017111  0.018996      2.000000
 -0.017111 -0.017111  0.018996      2.000000

 SYSTEM =  unknown system
 POSCAR =  Mn  F  H

 Startparameter for this run:
   NWRITE =      2    write-flag & timer
   PREC   = normal    normal or accurate (medium, high low for compatibility)
   ISTART =      0    job   : 0-new  1-cont  2-samecut
   ICHARG =      2    charge: 1-file 2-atom 10-const
   ISPIN  =      2    spin polarized calculation?
   LNONCOLLINEAR =      F non collinear calculations
   LSORBIT =      F    spin-orbit coupling
   INIWAV =      1    electr: 0-lowe 1-rand  2-diag
   LASPH  =      T    aspherical Exc in radial PAW
   METAGGA=      F    non-selfconsistent MetaGGA calc.

 Electronic Relaxation 1
   ENCUT  =  700.0 eV  51.45 Ry    7.17 a.u.  31.52 31.52 28.39*2*pi/ulx,y,z
   ENINI  =  700.0     initial cutoff
   ENAUG  =  613.6 eV  augmentation charge cutoff
   NELM   =     60;   NELMIN=  2; NELMDL= -5     # of ELM steps
   EDIFF  = 0.1E-06   stopping-criterion for ELM
   LREAL  =      F    real-space projection
   NLSPLINE    = F    spline interpolate recip. space projectors
   LCOMPAT=      F    compatible to vasp.4.4
   GGA_COMPAT  = T    GGA compatible to vasp.4.4-vasp.4.6
   LMAXPAW     = -100 max onsite density
   LMAXMIX     =    4 max onsite mixed and CHGCAR
   VOSKOWN=      0    Vosko Wilk Nusair interpolation
   ROPT   =    0.00000   0.00000   0.00000
 Ionic relaxation
   EDIFFG = -.5E-02   stopping-criterion for IOM
   NSW    =      0    number of steps for IOM
   NBLOCK =      1;   KBLOCK =      1    inner block; outer block
   IBRION =     -1    ionic relax: 0-MD 1-quasi-New 2-CG
   NFREE  =      0    steps in history (QN), initial steepest desc. (CG)
   ISIF   =      2    stress and relaxation
   IWAVPR =     10    prediction:  0-non 1-charg 2-wave 3-comb
   ISYM   =      0    0-nonsym 1-usesym 2-fastsym
   LCORR  =      T    Harris-Foulkes like correction to forces

   POTIM  = 0.5000    time-step for ionic-motion
   TEIN   =    0.0    initial temperature
   TEBEG  =    0.0;   TEEND  =   0.0 temperature during run
   SMASS  =  -3.00    Nose mass-parameter (am)
   estimated Nose-frequenzy (Omega)   =  0.10E-29 period in steps =****** mass=  -0.488E-26a.u.
   SCALEE = 1.0000    scale energy and forces
   NPACO  =    256;   APACO  = 16.0  distance and # of slots for P.C.
   PSTRESS=    0.0 pullay stress

  Mass of Ions in am
   POMASS =  54.94 19.00  1.00
  Ionic Valenz
   ZVAL   =  13.00  7.00  1.00
  Atomic Wigner-Seitz radii
  virtual crystal weights
   VCA    =   1.00  1.00  1.00
   NELECT =    1944.0000    total number of electrons
   NUPDOWN=      -1.0000    fix difference up-down

 DOS related values:
   EMIN   =  10.00;   EMAX   =-10.00  energy-range for DOS
   EFERMI =   0.00
   ISMEAR =     0;   SIGMA  =   0.02  broadening in eV -4-tet -1-fermi 0-gaus

 Electronic relaxation 2 (details)
   IALGO  =     68    algorithm
   LDIAG  =      T    sub-space diagonalisation (order eigenvalues)
   LSUBROT=      F    optimize rotation matrix (better conditioning)
   TURBO    =      0    0=normal 1=particle mesh
   IRESTART =      0    0=no restart 2=restart with 2 vectors
   NREBOOT  =      0    no. of reboots
   NMIN     =      0    reboot dimension
   EREF     =   0.00    reference energy to select bands
[...]

 Fermi contact (isotropic) hyperfine coupling parameter (MHz)
  ion      A_pw      A_1PS     A_1AE     A_1c      A_tot
   1     120.460   120.450    38.999  -114.029    39.009
   2    -120.482  -120.473   -37.445   113.935   -37.454
   3     120.706   120.697    36.282  -114.283    36.291
   4    -120.750  -120.741   -36.346   114.398   -36.355
   5     120.706   120.697    36.282  -114.283    36.291
   6    -120.714  -120.705   -36.464   114.301   -36.473
   7     120.460   120.450    38.997  -114.029    39.008
   8    -120.750  -120.741   -36.347   114.398   -36.356
   9     120.733   120.724    36.101  -114.346    36.110
  10    -120.701  -120.692   -35.766   114.288   -35.775
  11     120.736   120.727    36.192  -114.366    36.201
  12    -120.723  -120.714   -36.296   114.360   -36.305
  13     120.736   120.727    36.192  -114.366    36.201
  14    -120.735  -120.726   -36.351   114.366   -36.360
  15     120.733   120.724    36.101  -114.345    36.110
  16    -120.723  -120.714   -36.296   114.360   -36.305
  17     120.460   120.450    38.996  -114.029    39.007
  18    -120.744  -120.735   -36.174   114.386   -36.183
  19     120.706   120.697    36.281  -114.283    36.290
  20    -120.701  -120.692   -36.171   114.269   -36.180
  21     120.706   120.697    36.281  -114.283    36.290
  22    -120.735  -120.726   -36.006   114.350   -36.015
  23     120.460   120.450    38.996  -114.029    39.007
  24    -120.701  -120.692   -36.170   114.269   -36.180
  25     120.700   120.690    36.328  -114.266    36.337
  26    -120.482  -120.473   -37.445   113.935   -37.454
  27     120.720   120.711    36.098  -114.313    36.107
  28    -120.750  -120.741   -36.347   114.398   -36.356
  29     120.720   120.711    36.097  -114.313    36.106
  30    -120.714  -120.705   -36.464   114.301   -36.473
  31     120.700   120.690    36.327  -114.266    36.337
  32    -120.750  -120.741   -36.346   114.398   -36.356
  33     120.720   120.711    36.035  -114.311    36.044
  34    -120.745  -120.736   -36.173   114.386   -36.182
  35     120.729   120.720    36.151  -114.332    36.160
  36    -120.701  -120.692   -36.170   114.269   -36.179
  37     120.729   120.720    36.150  -114.332    36.159
  38    -120.735  -120.726   -36.007   114.350   -36.016
  39     120.720   120.711    36.034  -114.311    36.044
  40    -120.701  -120.692   -36.170   114.269   -36.179
  41     120.733   120.724    36.153  -114.338    36.162
  42    -120.701  -120.692   -35.766   114.288   -35.775
  43     120.734   120.725    36.211  -114.348    36.220
  44    -120.723  -120.714   -36.296   114.360   -36.305
  45     120.734   120.725    36.211  -114.348    36.220
  46    -120.735  -120.726   -36.351   114.366   -36.361
  47     120.733   120.724    36.153  -114.338    36.162
  48    -120.723  -120.714   -36.295   114.360   -36.304
  49     120.733   120.724    36.153  -114.338    36.162
  50    -120.745  -120.736   -36.075   114.374   -36.084
  51     120.734   120.725    36.211  -114.348    36.220
  52    -120.737  -120.728   -36.171   114.349   -36.180
  53     120.734   120.725    36.211  -114.348    36.220
  54    -120.733  -120.724   -36.216   114.344   -36.225
  55     120.733   120.724    36.153  -114.338    36.162
  56    -120.737  -120.728   -36.170   114.349   -36.179
  57     120.720   120.711    36.035  -114.311    36.044
  58    -120.693  -120.684   -36.386   114.248   -36.396
  59     120.729   120.720    36.150  -114.332    36.159
  60    -120.708  -120.698   -36.108   114.285   -36.117
[...]
 203       1.021     1.018     6.170    -0.734     6.174
 204       0.534     0.531     5.923    -0.228     5.925
 205      -1.037    -1.034    -6.276     0.746    -6.280
 206      -1.069    -1.065    -6.354     0.774    -6.357
 207       1.127     1.123     6.378    -0.836     6.381
 208       0.987     0.983     6.288    -0.690     6.291
 209      -1.037    -1.034    -6.276     0.746    -6.280
 210      -1.069    -1.065    -6.353     0.774    -6.357
 211       1.088     1.084     6.396    -0.792     6.400
 212       1.011     1.007     6.382    -0.710     6.385
 213      -1.013    -1.010    -6.131     0.728    -6.134
 214      -1.038    -1.035    -6.094     0.758    -6.097
 215       1.127     1.123     6.378    -0.836     6.382
 216       0.987     0.983     6.288    -0.690     6.291
 217       0.053     0.053     0.087     0.000     0.087

 Dipolar hyperfine coupling parameters (MHz)
  ion      A_xx      A_yy      A_zz      A_xy      A_xz      A_yz
   1      -0.680    -0.511     1.191    -0.386    -0.415    -0.312
   2       0.714     0.542    -1.256    -0.149     0.000     0.000
   3      -0.662    -0.584     1.247    -0.261    -0.077    -0.050
   4       0.728     0.619    -1.347    -0.243    -0.016    -0.030
   5      -0.662    -0.584     1.247    -0.261     0.076     0.050
   6       0.666     0.640    -1.306    -0.300    -0.000     0.000
   7      -0.680    -0.511     1.191    -0.386     0.415     0.312
   8       0.728     0.619    -1.347    -0.243     0.016     0.030
   9      -0.720    -0.538     1.258    -0.226     0.000     0.000
  10       0.649     0.533    -1.182    -0.234     0.000     0.000
  11      -0.663    -0.592     1.254    -0.273     0.000     0.000
  12       0.673     0.555    -1.229    -0.298    -0.110     0.087
  13      -0.663    -0.592     1.254    -0.273     0.000     0.000
  14       0.662     0.613    -1.274    -0.296    -0.000     0.000
  15      -0.720    -0.538     1.258    -0.226     0.000     0.000
  16       0.673     0.555    -1.229    -0.298     0.110    -0.087
  17      -0.680    -0.511     1.191    -0.386     0.415     0.312
  18       0.665     0.628    -1.293    -0.074     0.000     0.000
  19      -0.662    -0.584     1.247    -0.261     0.076     0.050
  20       0.658     0.619    -1.278    -0.244    -0.013    -0.008
  21      -0.662    -0.584     1.247    -0.261    -0.077    -0.050
  22       0.665     0.606    -1.271    -0.219     0.000     0.000
  23      -0.680    -0.511     1.191    -0.386    -0.415    -0.312
  24       0.658     0.619    -1.278    -0.244     0.013     0.009
  25      -0.657    -0.657     1.314    -0.281     0.010     0.010
  26       0.714     0.542    -1.256    -0.149    -0.000    -0.000
  27      -0.647    -0.605     1.251    -0.250    -0.020    -0.021
  28       0.728     0.619    -1.347    -0.243     0.015     0.030
  29      -0.647    -0.605     1.251    -0.250     0.019     0.021
  30       0.666     0.640    -1.306    -0.300    -0.000    -0.000
  31      -0.657    -0.657     1.314    -0.281    -0.009    -0.010
  32       0.728     0.619    -1.347    -0.243    -0.016    -0.030
  33      -0.646    -0.646     1.292    -0.220    -0.011    -0.015
  34       0.665     0.628    -1.293    -0.074     0.000     0.000
  35      -0.650    -0.639     1.289    -0.247     0.003    -0.011
  36       0.658     0.619    -1.278    -0.244     0.013     0.008
  37      -0.650    -0.639     1.289    -0.247    -0.003     0.011
  38       0.665     0.606    -1.271    -0.219    -0.000    -0.000
  39      -0.647    -0.646     1.292    -0.220     0.011     0.015
  40       0.658     0.619    -1.278    -0.244    -0.013    -0.008
  41      -0.629    -0.661     1.290    -0.188     0.018     0.013
  42       0.649     0.533    -1.182    -0.234     0.000    -0.000
  43      -0.644    -0.629     1.273    -0.250    -0.003     0.001
  44       0.673     0.555    -1.229    -0.298     0.109    -0.087
  45      -0.644    -0.629     1.273    -0.250     0.003    -0.001
  46       0.662     0.613    -1.274    -0.296    -0.000    -0.000
  47      -0.629    -0.661     1.290    -0.188    -0.018    -0.014
  48       0.673     0.555    -1.229    -0.298    -0.109     0.087
  49      -0.629    -0.661     1.290    -0.189    -0.018    -0.014
  50       0.583     0.669    -1.252    -0.203     0.000    -0.000
  51      -0.644    -0.629     1.273    -0.250     0.003    -0.001
  52       0.640     0.653    -1.294    -0.226    -0.000    -0.000
  53      -0.644    -0.629     1.273    -0.250    -0.003     0.001
  54       0.653     0.635    -1.288    -0.254    -0.000    -0.000
  55      -0.629    -0.661     1.290    -0.189     0.018     0.013
  56       0.641     0.653    -1.294    -0.226    -0.000     0.000
  57      -0.647    -0.646     1.292    -0.220     0.011     0.015
  58       0.603     0.624    -1.226    -0.302     0.000    -0.000
  59      -0.649    -0.639     1.289    -0.247    -0.003     0.011
  60       0.621     0.623    -1.244    -0.252     0.020     0.032
[...]
 203      -1.618    -1.362     2.980    -0.433     0.000    -0.000
 204      -1.736    -1.483     3.219    -0.452     0.000    -0.000
 205       1.467     1.364    -2.831    -0.263     0.018     0.007
 206       1.483     1.314    -2.797    -0.217    -0.010    -0.035
 207      -1.501    -1.309     2.810    -0.295     0.022     0.030
 208      -1.485    -1.249     2.734    -0.206    -0.007     0.059
 209       1.467     1.364    -2.831    -0.263    -0.018    -0.007
 210       1.483     1.314    -2.797    -0.217     0.010     0.035
 211      -1.447    -1.397     2.844    -0.224    -0.000     0.000
 212      -1.428    -1.352     2.780    -0.213     0.000     0.000
 213       1.513     1.336    -2.848    -0.295    -0.050     0.012
 214       1.755     1.073    -2.829    -0.282     0.013    -0.063
 215      -1.502    -1.308     2.810    -0.295    -0.022    -0.030
 216      -1.486    -1.248     2.734    -0.206     0.007    -0.059
 217      -3.044     2.352     0.692    -0.059     0.000    -0.000

 Total hyperfine coupling parameters after diagonalization (MHz)
 (convention: |A_zz| > |A_xx| > |A_yy|)
  ion      A_xx      A_yy      A_zz     asymmetry (A_yy - A_xx)/ A_zz
   1      38.809    37.900    40.318      -0.023
   2     -36.999   -36.654   -38.710      -0.009
   3      35.932    35.399    37.541      -0.014
   4     -35.930   -35.433   -37.703      -0.013
   5      35.932    35.399    37.541      -0.014
   6     -36.120   -35.519   -37.779      -0.016
   7      38.807    37.899    40.316      -0.023
   8     -35.930   -35.433   -37.704      -0.013
   9      35.725    35.238    37.369      -0.013
  10     -35.425   -34.943   -36.957      -0.013
  11      35.849    35.298    37.455      -0.015
  12     -35.994   -35.377   -37.542      -0.016
  13      35.849    35.298    37.455      -0.015
  14     -36.020   -35.426   -37.635      -0.016
  15      35.724    35.238    37.368      -0.013
  16     -35.995   -35.378   -37.543      -0.016
  17      38.806    37.898    40.315      -0.023
  18     -35.612   -35.460   -37.476      -0.004
  19      35.931    35.399    37.541      -0.014
  20     -35.786   -35.296   -37.457      -0.013
  21      35.931    35.399    37.541      -0.014
  22     -35.601   -35.159   -37.286      -0.012
  23      38.806    37.898    40.315      -0.023
  24     -35.785   -35.296   -37.457      -0.013
  25      35.960    35.399    37.651      -0.015
  26     -36.999   -36.655   -38.710      -0.009
  27      35.732    35.229    37.358      -0.013
  28     -35.930   -35.433   -37.704      -0.013
  29      35.732    35.229    37.358      -0.013
  30     -36.121   -35.520   -37.779      -0.016
  31      35.960    35.399    37.651      -0.015
  32     -35.930   -35.433   -37.703      -0.013
  33      35.618    35.177    37.336      -0.012
  34     -35.612   -35.460   -37.476      -0.004
  35      35.762    35.268    37.449      -0.013
  36     -35.785   -35.296   -37.457      -0.013
  37      35.762    35.268    37.448      -0.013
  38     -35.602   -35.160   -37.287      -0.012
  39      35.617    35.177    37.336      -0.012
  40     -35.785   -35.296   -37.457      -0.013
  41      35.706    35.328    37.453      -0.010
  42     -35.425   -34.943   -36.957      -0.013
  43      35.834    35.333    37.493      -0.013
  44     -35.994   -35.378   -37.542      -0.016
  45      35.833    35.333    37.493      -0.013
  46     -36.020   -35.426   -37.635      -0.016
  47      35.706    35.327    37.453      -0.010
  48     -35.994   -35.377   -37.542      -0.016
  49      35.706    35.328    37.453      -0.010
  50     -35.665   -35.250   -37.336      -0.011
  51      35.834    35.333    37.493      -0.013
  52     -35.759   -35.307   -37.473      -0.012
  53      35.833    35.333    37.492      -0.013
  54     -35.835   -35.327   -37.513      -0.014
  55      35.706    35.328    37.453      -0.010
  56     -35.759   -35.306   -37.473      -0.012
  57      35.618    35.177    37.336      -0.012
  58     -36.084   -35.481   -37.622      -0.016
  59      35.761    35.267    37.448      -0.013
  60     -35.746   -35.242   -37.362      -0.013
[...]
 203       5.135     4.232     9.154      -0.099
 204       4.785     3.847     9.144      -0.103
 205      -5.132    -4.596    -9.111      -0.059
 206      -5.191    -4.726    -9.155      -0.051
 207       5.287     4.666     9.192      -0.068
 208       5.161     4.686     9.026      -0.053
 209      -5.132    -4.596    -9.111      -0.059
 210      -5.191    -4.725    -9.154      -0.051
 211       5.204     4.752     9.244      -0.049
 212       5.211     4.779     9.165      -0.047
 213      -5.018    -4.402    -8.983      -0.069
 214      -5.124    -4.241    -8.927      -0.099
 215       5.288     4.666     9.192      -0.068
 216       5.161     4.686     9.026      -0.053
 217       2.440     0.779    -2.958       0.562

 writing wavefunctions

 total charge

[...]

 magnetization (x)

# of ion       s       p       d       tot
    1        0.019   0.020   4.559   4.598
    2       -0.018  -0.021  -4.559  -4.598
    3        0.018   0.018   4.568   4.604
    4       -0.018  -0.018  -4.570  -4.606
    5        0.018   0.018   4.568   4.604
    6       -0.018  -0.018  -4.569  -4.604
    7        0.019   0.020   4.559   4.598
    8       -0.018  -0.018  -4.570  -4.606
    9        0.018   0.018   4.569   4.605
   10       -0.017  -0.018  -4.568  -4.603
   11        0.018   0.018   4.570   4.605
   12       -0.018  -0.018  -4.569  -4.605
   13        0.018   0.018   4.570   4.605
   14       -0.018  -0.018  -4.570  -4.605
   15        0.018   0.018   4.569   4.605
   16       -0.018  -0.018  -4.569  -4.605
   17        0.019   0.020   4.559   4.598
   18       -0.018  -0.018  -4.570  -4.606
   19        0.018   0.018   4.568   4.604
   20       -0.018  -0.018  -4.568  -4.603
   21        0.018   0.018   4.568   4.604
   22       -0.018  -0.018  -4.569  -4.605
   23        0.019   0.020   4.559   4.598
   24       -0.018  -0.018  -4.568  -4.603
   25        0.018   0.018   4.568   4.603
   26       -0.018  -0.021  -4.559  -4.598
   27        0.018   0.018   4.569   4.604
   28       -0.018  -0.018  -4.570  -4.606
   29        0.018   0.018   4.569   4.604
   30       -0.018  -0.018  -4.569  -4.604
   31        0.018   0.018   4.568   4.603
   32       -0.018  -0.018  -4.570  -4.606
   33        0.018   0.018   4.569   4.604
   34       -0.018  -0.018  -4.570  -4.606
   35        0.018   0.018   4.569   4.604
   36       -0.018  -0.018  -4.568  -4.603
   37        0.018   0.018   4.569   4.604
   38       -0.018  -0.018  -4.569  -4.605
   39        0.018   0.018   4.569   4.604
   40       -0.018  -0.018  -4.568  -4.603
   41        0.018   0.018   4.569   4.605
   42       -0.017  -0.018  -4.568  -4.603
   43        0.018   0.018   4.570   4.605
   44       -0.018  -0.018  -4.569  -4.605
   45        0.018   0.018   4.570   4.605
   46       -0.018  -0.018  -4.570  -4.605
   47        0.018   0.018   4.569   4.605
   48       -0.018  -0.018  -4.569  -4.605
   49        0.018   0.018   4.569   4.605
   50       -0.018  -0.018  -4.570  -4.605
   51        0.018   0.018   4.570   4.605
   52       -0.018  -0.018  -4.570  -4.605
   53        0.018   0.018   4.570   4.605
   54       -0.018  -0.018  -4.569  -4.605
   55        0.018   0.018   4.569   4.605
   56       -0.018  -0.018  -4.570  -4.605
   57        0.018   0.018   4.569   4.604
   58       -0.018  -0.018  -4.568  -4.603
   59        0.018   0.018   4.569   4.604
   60       -0.018  -0.018  -4.568  -4.603
[...]
  203        0.002   0.019   0.000   0.021
  204        0.002   0.007   0.000   0.009
  205       -0.002  -0.019   0.000  -0.022
  206       -0.002  -0.020   0.000  -0.022
  207        0.002   0.021   0.000   0.024
  208        0.002   0.018   0.000   0.020
  209       -0.002  -0.019   0.000  -0.022
  210       -0.002  -0.020   0.000  -0.022
  211        0.002   0.021   0.000   0.023
  212        0.002   0.019   0.000   0.021
  213       -0.002  -0.019   0.000  -0.021
  214       -0.002  -0.020   0.000  -0.022
  215        0.002   0.021   0.000   0.024
  216        0.002   0.018   0.000   0.020
  217        0.001   0.000   0.000   0.001
tot          0.005   0.004  -0.024  -0.015