 vasp.5.4.4.18Apr17-6-g9f103f2a35 (build Apr 24 2018 11:19:41) complex

 executed on         CrayXC-Intel date 2021.08.25  22:01:27

 INCAR:
 POTCAR:    PAW_PBE Mn_pv 02Aug2007
 POTCAR:    PAW_PBE F 08Apr2002
 POTCAR:    PAW_PBE H 15Jun2001

 POTCAR:    PAW_PBE Mn_pv 02Aug2007
   VRHFIN =Mn: 3p4s3d

   TITEL  = PAW_PBE Mn_pv 02Aug2007
   POMASS =   54.938; ZVAL   =   13.000    mass and valenz
   ENMAX  =  269.864; ENMIN  =  202.398 eV

 POTCAR:    PAW_PBE F 08Apr2002
   VRHFIN =F: s2p5

   TITEL  = PAW_PBE F 08Apr2002
   POMASS =   18.998; ZVAL   =    7.000    mass and valenz
   ENMAX  =  400.000; ENMIN  =  300.000 eV

 POTCAR:    PAW_PBE H 15Jun2001
   VRHFIN =H: ultrasoft test

   TITEL  = PAW_PBE H 15Jun2001
   POMASS =    1.000; ZVAL   =    1.000    mass and valenz
   ENMAX  =  250.000; ENMIN  =  200.000 eV

  PAW_PBE Mn_pv 02Aug2007               :
  PAW_PBE F 08Apr2002                   :
  PAW_PBE H 15Jun2001                   :

 POSCAR: Mn  F  H
  positions in direct lattice
  velocities in cartesian coordinates
 exchange correlation table for  LEXCH =       14
   RHO(1)=    0.500       N(1)  =     2000
   RHO(2)=  100.500       N(2)  =     4000

 ion  position               nearest neighbor table
   1  0.200  0.200  0.125-  76 2.02  80 2.02  73 2.10  74 2.10  75 2.39  79 2.39
   2  0.994  0.994  1.000- 204 2.05 117 2.10 182 2.10 170 2.13 105 2.13  75 2.24
   3  0.166  0.166  0.381-  78 2.07  77 2.07  80 2.08  83 2.08  84 2.10
   4  0.994  0.994  0.250- 208 2.05 109 2.10 174 2.10 170 2.13 105 2.13  79 2.24
   5  0.167  0.167  0.625-  81 2.09  82 2.09  84 2.13  88 2.13  83 2.14  87 2.14
   6  0.999  0.999  0.500- 212 2.09  83 2.11 178 2.13 113 2.13 174 2.15 109 2.15
   7  0.166  0.166  0.869-  86 2.07  85 2.07  76 2.08  87 2.08  88 2.10
   8  0.999  0.999  0.750- 216 2.09  87 2.11 178 2.13 113 2.13 182 2.15 117 2.15
   9  0.165  0.498  0.125-  89 2.10  92 2.13  96 2.13  91 2.13  95 2.13  90 2.15
  10  0.001  0.333  0.001-  91 2.10 172 2.10 186 2.12 198 2.12  85 2.14  73 2.17
  11  0.167  0.501  0.375-  93 2.10  94 2.11 100 2.12  95 2.13  99 2.14  96 2.14
  12  0.001  0.333  0.249-  95 2.10 176 2.10 186 2.12 190 2.12  77 2.14  73 2.17
  13  0.166  0.500  0.625-  97 2.10  98 2.10 100 2.13 104 2.13 103 2.14  99 2.14
  14  1.000  0.333  0.500- 180 2.10  99 2.10 190 2.12 194 2.13  81 2.14  77 2.18
  15  0.167  0.501  0.875- 101 2.10 102 2.11 104 2.12  91 2.13 103 2.14  92 2.14
  16  1.000  0.333  0.750- 184 2.10 103 2.10 198 2.12 194 2.13  81 2.14  85 2.18
  17  0.165  0.831  0.125- 106 2.10 105 2.12 111 2.13 107 2.13 108 2.13 112 2.13
  18  1.000  0.666  0.000- 188 2.10 107 2.11 101 2.13 202 2.13 214 2.13  89 2.14
  19  0.167  0.834  0.375- 110 2.10 109 2.12 116 2.13 111 2.13 115 2.13 112 2.15
  20  1.000  0.666  0.250- 192 2.10 111 2.11  93 2.13 202 2.13 206 2.13  89 2.14
  21  0.166  0.833  0.625- 114 2.10 113 2.11 115 2.13 119 2.13 116 2.14 120 2.14
  22  0.000  0.667  0.500- 196 2.10 115 2.11 206 2.13 210 2.13  97 2.13  93 2.14
  23  0.167  0.834  0.875- 118 2.10 117 2.12 120 2.13 107 2.13 119 2.13 108 2.15
  24  0.000  0.667  0.750- 200 2.10 119 2.11 214 2.13 210 2.13  97 2.13 101 2.14
  25  0.498  0.165  0.125- 122 2.10 124 2.13 128 2.13 123 2.13 127 2.13 121 2.15
  26  0.333  0.001  0.001- 123 2.10 108 2.10 153 2.12 165 2.12  86 2.14  74 2.17
  27  0.501  0.167  0.375- 126 2.10 125 2.11 132 2.12 127 2.13 131 2.14 128 2.14
  28  0.333  0.001  0.249- 127 2.10 112 2.10 153 2.12 157 2.12  78 2.14  74 2.17
  29  0.500  0.166  0.625- 130 2.10 129 2.10 132 2.13 136 2.13 135 2.14 131 2.14
  30  0.333  1.000  0.500- 116 2.10 131 2.10 157 2.12 161 2.13  82 2.14  78 2.18
  31  0.501  0.167  0.875- 134 2.10 133 2.11 136 2.12 123 2.13 135 2.14 124 2.14
  32  0.333  1.000  0.750- 120 2.10 135 2.10 165 2.12 161 2.13  82 2.14  86 2.18
  33  0.504  0.504  0.125- 138 2.10 137 2.10 140 2.11 144 2.11 143 2.13 139 2.13
  34  0.338  0.338  0.996- 139 2.05 102 2.11 133 2.11  76 2.13  90 2.16 121 2.16
  35  0.501  0.501  0.376- 142 2.10 141 2.10 148 2.12 144 2.12 147 2.12 143 2.15
  36  0.338  0.338  0.254- 143 2.05  94 2.11 125 2.11  80 2.13  90 2.16 121 2.16
  37  0.501  0.501  0.625- 146 2.11 145 2.11 148 2.12 152 2.12 151 2.13 147 2.13
  38  0.334  0.334  0.501- 147 2.10  84 2.11 129 2.12  98 2.12 125 2.13  94 2.13
  39  0.501  0.501  0.874- 150 2.10 149 2.10 152 2.12 140 2.12 151 2.12 139 2.15
  40  0.334  0.334  0.749- 151 2.10  88 2.11 129 2.12  98 2.12 133 2.13 102 2.13
  41  0.499  0.833  0.125- 154 2.11 153 2.12 155 2.13 159 2.13 160 2.13 156 2.13
  42  0.333  0.666  0.000- 155 2.10  92 2.11 149 2.13 137 2.13 118 2.13 106 2.13
  43  0.500  0.834  0.375- 158 2.11 157 2.12 163 2.13 164 2.13 160 2.13 159 2.13
  44  0.333  0.666  0.250- 159 2.10  96 2.11 141 2.13 137 2.13 110 2.13 106 2.13
  45  0.500  0.834  0.625- 162 2.10 161 2.11 164 2.13 168 2.13 163 2.13 167 2.13
  46  0.333  0.667  0.500- 163 2.10 100 2.10 145 2.13 114 2.13 141 2.13 110 2.14
  47  0.500  0.834  0.875- 166 2.11 165 2.12 167 2.13 168 2.13 156 2.13 155 2.13
  48  0.333  0.667  0.750- 167 2.10 104 2.10 145 2.13 114 2.13 149 2.13 118 2.14
  49  0.831  0.165  0.125- 169 2.10 170 2.12 175 2.13 171 2.13 172 2.13 176 2.13
  50  0.666  0.999  0.000- 156 2.10 171 2.11 134 2.13 201 2.13 213 2.13 122 2.14
  51  0.834  0.167  0.375- 173 2.10 174 2.12 180 2.13 175 2.13 179 2.13 176 2.15
  52  0.666  0.999  0.250- 160 2.10 175 2.11 126 2.13 201 2.13 205 2.13 122 2.14
  53  0.833  0.166  0.625- 177 2.10 178 2.11 179 2.13 183 2.13 180 2.14 184 2.14
  54  0.667  1.000  0.500- 164 2.10 179 2.11 205 2.13 209 2.13 130 2.13 126 2.14
  55  0.834  0.167  0.875- 181 2.10 182 2.12 184 2.13 171 2.13 183 2.13 172 2.15
  56  0.667  1.000  0.750- 168 2.10 183 2.11 213 2.13 209 2.13 130 2.13 134 2.14
  57  0.833  0.499  0.125- 185 2.11 186 2.12 187 2.13 191 2.13 192 2.13 188 2.13
  58  0.666  0.333  0.000- 187 2.10 124 2.11 150 2.13 138 2.13 181 2.13 169 2.13
  59  0.834  0.500  0.375- 189 2.11 190 2.12 195 2.13 196 2.13 192 2.13 191 2.13
  60  0.666  0.333  0.250- 191 2.10 128 2.11 142 2.13 138 2.13 173 2.13 169 2.13
[...]
 203  0.767  0.767  1.000-  66 2.08  65 2.11  71 2.12
 204  0.895  0.895  0.999-   2 2.05  71 2.13  65 2.13
 205  0.731  0.934  0.375-  67 2.10  54 2.13  52 2.13
 206  0.934  0.731  0.375-  67 2.10  22 2.13  20 2.13
 207  0.767  0.767  0.250-  68 2.08  65 2.11  67 2.12
 208  0.895  0.895  0.251-   4 2.05  67 2.13  65 2.13
 209  0.733  0.935  0.625-  69 2.10  56 2.13  54 2.13
 210  0.936  0.733  0.625-  69 2.10  24 2.13  22 2.13
 211  0.768  0.768  0.502-  70 2.10  67 2.11  69 2.13
 212  0.898  0.898  0.498-   6 2.09  69 2.14  67 2.14
 213  0.731  0.934  0.875-  71 2.10  56 2.13  50 2.13
 214  0.934  0.731  0.875-  71 2.10  24 2.13  18 2.13
 215  0.768  0.768  0.748-  72 2.10  71 2.11  69 2.13
 216  0.898  0.898  0.752-   8 2.09  69 2.14  71 2.14
 217  0.093  0.093  0.125-  75 1.16  79 1.16

IMPORTANT INFORMATION: All symmetrisations will be switched off!
NOSYMM: (Re-)initialisation of all symmetry stuff for point group C_1.

 KPOINTS: KPOINTS created by Atomic Simulation Env

Automatic generation of k-mesh.
Space group operators:
 irot       det(A)        alpha          n_x          n_y          n_z        tau_x        tau_y        tau_z
    1     1.000000     0.000000     1.000000     0.000000     0.000000     0.000000     0.000000     0.000000

 Subroutine IBZKPT returns following result:

 Found      4 irreducible k-points:

 Following reciprocal coordinates:
            Coordinates               Weight
  0.250000  0.250000  0.250000      2.000000
 -0.250000  0.250000  0.250000      2.000000
  0.250000 -0.250000  0.250000      2.000000
 -0.250000 -0.250000  0.250000      2.000000

 Following cartesian coordinates:
            Coordinates               Weight
  0.017066  0.017066  0.018935      2.000000
 -0.017066  0.017066  0.018935      2.000000
  0.017066 -0.017066  0.018935      2.000000
 -0.017066 -0.017066  0.018935      2.000000

 SYSTEM =  unknown system
 POSCAR =  Mn  F  H

 Startparameter for this run:
   NWRITE =      2    write-flag & timer
   PREC   = normal    normal or accurate (medium, high low for compatibility)
   ISTART =      1    job   : 0-new  1-cont  2-samecut
   ICHARG =      0    charge: 1-file 2-atom 10-const
   ISPIN  =      2    spin polarized calculation?
   LNONCOLLINEAR =      F non collinear calculations
   LSORBIT =      F    spin-orbit coupling
   INIWAV =      1    electr: 0-lowe 1-rand  2-diag
   LASPH  =      T    aspherical Exc in radial PAW
   METAGGA=      F    non-selfconsistent MetaGGA calc.

 Electronic Relaxation 1
   ENCUT  =  700.0 eV  51.45 Ry    7.17 a.u.  31.60 31.60 28.48*2*pi/ulx,y,z
   ENINI  =  700.0     initial cutoff
   ENAUG  =  613.6 eV  augmentation charge cutoff
   NELM   =     60;   NELMIN=  2; NELMDL=  0     # of ELM steps
   EDIFF  = 0.1E-07   stopping-criterion for ELM
   LREAL  =      F    real-space projection
   NLSPLINE    = F    spline interpolate recip. space projectors
   LCOMPAT=      F    compatible to vasp.4.4
   GGA_COMPAT  = T    GGA compatible to vasp.4.4-vasp.4.6
   LMAXPAW     = -100 max onsite density
   LMAXMIX     =    4 max onsite mixed and CHGCAR
   VOSKOWN=      0    Vosko Wilk Nusair interpolation
   ROPT   =    0.00000   0.00000   0.00000
 Ionic relaxation
   EDIFFG = -.5E-02   stopping-criterion for IOM
   NSW    =      0    number of steps for IOM
   NBLOCK =      1;   KBLOCK =      1    inner block; outer block
   IBRION =     -1    ionic relax: 0-MD 1-quasi-New 2-CG
   NFREE  =      0    steps in history (QN), initial steepest desc. (CG)
   ISIF   =      0    stress and relaxation
   IWAVPR =     10    prediction:  0-non 1-charg 2-wave 3-comb
   ISYM   =      0    0-nonsym 1-usesym 2-fastsym
   LCORR  =      T    Harris-Foulkes like correction to forces

   POTIM  = 0.2000    time-step for ionic-motion
   TEIN   =    0.0    initial temperature
   TEBEG  =    0.0;   TEEND  =   0.0 temperature during run
   SMASS  =  -3.00    Nose mass-parameter (am)
   estimated Nose-frequenzy (Omega)   =  0.10E-29 period in steps =****** mass=  -0.490E-26a.u.
   SCALEE = 1.0000    scale energy and forces
   NPACO  =    256;   APACO  = 16.0  distance and # of slots for P.C.
   PSTRESS=    0.0 pullay stress

  Mass of Ions in am
   POMASS =  54.94 19.00  1.00
  Ionic Valenz
   ZVAL   =  13.00  7.00  1.00
  Atomic Wigner-Seitz radii
  virtual crystal weights
   VCA    =   1.00  1.00  1.00
   NELECT =    1944.0000    total number of electrons
   NUPDOWN=      -1.0000    fix difference up-down

 DOS related values:
   EMIN   =  10.00;   EMAX   =-10.00  energy-range for DOS
   EFERMI =   0.00
   ISMEAR =     0;   SIGMA  =   0.01  broadening in eV -4-tet -1-fermi 0-gaus

 Electronic relaxation 2 (details)
   IALGO  =     68    algorithm
   LDIAG  =      T    sub-space diagonalisation (order eigenvalues)
   LSUBROT=      F    optimize rotation matrix (better conditioning)
   TURBO    =      0    0=normal 1=particle mesh
   IRESTART =      0    0=no restart 2=restart with 2 vectors
   NREBOOT  =      0    no. of reboots
   NMIN     =      0    reboot dimension
   EREF     =   0.00    reference energy to select bands
   IMIX   =      4    mixing-type and parameters
[...]

 Fermi contact (isotropic) hyperfine coupling parameter (MHz)
  ion      A_pw      A_1PS     A_1AE     A_1c      A_tot
   1     121.360   121.348    45.843  -115.445    45.856
   2    -121.776  -121.766   -38.556   115.883   -38.566
   3     121.508   121.496    42.535  -115.622    42.546
   4    -121.776  -121.766   -38.555   115.882   -38.565
   5     121.862   121.853    37.483  -115.968    37.493
   6    -121.903  -121.894   -37.756   116.099   -37.765
   7     121.507   121.496    42.540  -115.621    42.552
   8    -121.903  -121.894   -37.756   116.099   -37.765
   9     121.927   121.918    37.796  -116.171    37.805
  10    -121.892  -121.882   -37.267   116.092   -37.276
  11     121.896   121.887    37.419  -116.070    37.429
  12    -121.892  -121.882   -37.267   116.092   -37.276
  13     121.913   121.904    37.353  -116.120    37.362
  14    -121.906  -121.896   -37.720   116.128   -37.730
  15     121.896   121.887    37.419  -116.070    37.429
  16    -121.906  -121.896   -37.720   116.128   -37.730
  17     121.897   121.888    37.313  -116.063    37.322
  18    -121.907  -121.898   -37.337   116.100   -37.346
  19     121.922   121.913    37.468  -116.143    37.477
  20    -121.907  -121.898   -37.337   116.100   -37.346
  21     121.910   121.901    37.601  -116.109    37.611
  22    -121.910  -121.900   -37.440   116.107   -37.449
  23     121.922   121.913    37.468  -116.143    37.477
  24    -121.910  -121.900   -37.440   116.107   -37.449
  25     121.927   121.918    37.796  -116.171    37.805
  26    -121.892  -121.882   -37.267   116.092   -37.276
  27     121.896   121.887    37.419  -116.070    37.429
  28    -121.892  -121.882   -37.267   116.092   -37.276
  29     121.913   121.904    37.353  -116.120    37.362
  30    -121.906  -121.896   -37.720   116.128   -37.729
  31     121.896   121.887    37.419  -116.070    37.429
  32    -121.905  -121.896   -37.720   116.128   -37.730
  33     121.849   121.840    37.445  -115.925    37.455
  34    -121.784  -121.774   -38.258   115.876   -38.267
  35     121.888   121.879    37.502  -116.044    37.511
  36    -121.784  -121.774   -38.258   115.876   -38.267
  37     121.893   121.884    37.394  -116.043    37.403
  38    -121.889  -121.881   -37.117   116.034   -37.126
  39     121.888   121.879    37.502  -116.044    37.511
  40    -121.889  -121.881   -37.117   116.034   -37.126
  41     121.920   121.911    37.305  -116.134    37.314
  42    -121.906  -121.897   -37.365   116.097   -37.374
  43     121.918   121.909    37.337  -116.129    37.346
  44    -121.906  -121.897   -37.365   116.097   -37.374
  45     121.913   121.904    37.386  -116.116    37.395
  46    -121.909  -121.900   -37.405   116.109   -37.414
  47     121.918   121.909    37.337  -116.129    37.346
  48    -121.909  -121.900   -37.405   116.109   -37.414
  49     121.897   121.888    37.313  -116.063    37.322
  50    -121.907  -121.898   -37.337   116.100   -37.346
  51     121.922   121.913    37.468  -116.143    37.477
  52    -121.907  -121.898   -37.337   116.100   -37.346
  53     121.910   121.901    37.601  -116.109    37.610
  54    -121.910  -121.900   -37.440   116.107   -37.449
  55     121.922   121.913    37.468  -116.143    37.477
  56    -121.910  -121.900   -37.440   116.107   -37.449
  57     121.920   121.911    37.305  -116.134    37.314
  58    -121.906  -121.897   -37.365   116.097   -37.375
  59     121.918   121.909    37.337  -116.129    37.346
  60    -121.906  -121.897   -37.365   116.097   -37.375
[...]
 203       0.839     0.836     5.548    -0.580     5.551
 204       0.564     0.562     5.168    -0.308     5.170
 205      -0.825    -0.822    -5.393     0.574    -5.396
 206      -0.825    -0.822    -5.393     0.574    -5.396
 207       0.839     0.836     5.548    -0.580     5.551
 208       0.564     0.562     5.168    -0.308     5.170
 209      -0.830    -0.827    -5.474     0.575    -5.477
 210      -0.830    -0.827    -5.474     0.575    -5.477
 211       0.900     0.897     5.591    -0.643     5.595
 212       0.779     0.777     5.575    -0.513     5.578
 213      -0.825    -0.822    -5.393     0.574    -5.396
 214      -0.825    -0.822    -5.393     0.574    -5.396
 215       0.900     0.897     5.591    -0.643     5.595
 216       0.779     0.777     5.575    -0.513     5.578
 217       0.039     0.039     0.064     0.000     0.064

 Dipolar hyperfine coupling parameters (MHz)
  ion      A_xx      A_yy      A_zz      A_xy      A_xz      A_yz
   1      -0.942    -0.942     1.885    -1.183     0.000     0.000
   2       0.702     0.702    -1.405    -0.096    -0.027    -0.027
   3      -0.427    -0.427     0.853    -0.492    -0.806    -0.806
   4       0.702     0.702    -1.404    -0.096     0.027     0.027
   5      -0.647    -0.647     1.294    -0.330     0.000     0.000
   6       0.713     0.713    -1.425    -0.344     0.009     0.009
   7      -0.427    -0.427     0.853    -0.492     0.807     0.807
   8       0.713     0.713    -1.425    -0.344    -0.009    -0.009
   9      -0.850    -0.512     1.362    -0.230    -0.000     0.000
  10       0.667     0.588    -1.255    -0.313     0.041    -0.073
  11      -0.650    -0.701     1.351    -0.309     0.026     0.063
  12       0.667     0.588    -1.255    -0.313    -0.041     0.073
  13      -0.721    -0.602     1.323    -0.308    -0.000     0.000
  14       0.698     0.625    -1.323    -0.392    -0.094     0.060
  15      -0.650    -0.701     1.351    -0.309    -0.026    -0.063
  16       0.698     0.625    -1.323    -0.392     0.094    -0.060
  17      -0.632    -0.735     1.367    -0.219     0.000     0.000
  18       0.683     0.643    -1.326    -0.286     0.032    -0.001
  19      -0.754    -0.591     1.345    -0.254     0.041     0.037
  20       0.683     0.643    -1.326    -0.286    -0.032     0.001
  21      -0.655    -0.687     1.342    -0.329     0.000     0.000
  22       0.705     0.642    -1.346    -0.302    -0.008     0.017
  23      -0.754    -0.591     1.345    -0.254    -0.041    -0.037
  24       0.705     0.642    -1.346    -0.302     0.008    -0.017
  25      -0.512    -0.850     1.362    -0.230     0.000    -0.000
  26       0.588     0.667    -1.255    -0.313    -0.073     0.041
  27      -0.701    -0.650     1.351    -0.309     0.063     0.026
  28       0.588     0.667    -1.255    -0.313     0.073    -0.041
  29      -0.602    -0.721     1.323    -0.308     0.000    -0.000
  30       0.625     0.698    -1.323    -0.392     0.060    -0.094
  31      -0.701    -0.650     1.351    -0.309    -0.063    -0.026
  32       0.625     0.698    -1.323    -0.392    -0.060     0.094
  33      -0.689    -0.689     1.377    -0.341    -0.000    -0.000
  34       0.642     0.642    -1.283    -0.292    -0.162    -0.162
  35      -0.684    -0.684     1.368    -0.339    -0.059    -0.059
  36       0.642     0.642    -1.283    -0.292     0.162     0.162
  37      -0.684    -0.684     1.369    -0.281     0.000     0.000
  38       0.671     0.671    -1.342    -0.217     0.051     0.051
  39      -0.684    -0.684     1.368    -0.339     0.059     0.059
  40       0.671     0.671    -1.342    -0.217    -0.051    -0.051
  41      -0.712    -0.664     1.377    -0.238     0.000     0.000
  42       0.705     0.630    -1.336    -0.268     0.010     0.019
  43      -0.670    -0.693     1.363    -0.259     0.006    -0.007
  44       0.705     0.630    -1.336    -0.268    -0.010    -0.019
  45      -0.692    -0.655     1.347    -0.296     0.000     0.000
  46       0.665     0.665    -1.331    -0.304     0.012    -0.006
  47      -0.670    -0.693     1.363    -0.259    -0.006     0.007
  48       0.665     0.665    -1.331    -0.304    -0.012     0.006
  49      -0.735    -0.632     1.367    -0.219     0.000     0.000
  50       0.643     0.683    -1.326    -0.286    -0.001     0.032
  51      -0.591    -0.754     1.345    -0.254     0.037     0.041
  52       0.643     0.683    -1.326    -0.286     0.001    -0.032
  53      -0.687    -0.655     1.342    -0.329     0.000     0.000
  54       0.642     0.705    -1.347    -0.302     0.017    -0.008
  55      -0.591    -0.754     1.345    -0.254    -0.037    -0.041
  56       0.642     0.705    -1.347    -0.302    -0.017     0.008
  57      -0.664    -0.713     1.377    -0.238     0.000     0.000
  58       0.630     0.705    -1.336    -0.268     0.019     0.010
  59      -0.693    -0.670     1.363    -0.259    -0.007     0.006
  60       0.630     0.705    -1.336    -0.268    -0.019    -0.010
[...]
 203      -1.326    -1.327     2.653    -0.324    -0.010    -0.010
 204      -1.387    -1.387     2.774    -0.392    -0.003    -0.003
 205       1.259     1.301    -2.560    -0.246     0.025    -0.015
 206       1.301     1.259    -2.560    -0.246    -0.016     0.025
 207      -1.326    -1.327     2.653    -0.324     0.010     0.010
 208      -1.387    -1.387     2.774    -0.392     0.003     0.003
 209       1.217     1.335    -2.552    -0.238     0.000    -0.000
 210       1.335     1.217    -2.552    -0.238    -0.000     0.000
 211      -1.278    -1.278     2.557    -0.251     0.036     0.036
 212      -1.215    -1.215     2.430    -0.154     0.035     0.035
 213       1.259     1.301    -2.560    -0.246    -0.025     0.015
 214       1.301     1.259    -2.560    -0.246     0.016    -0.025
 215      -1.278    -1.278     2.557    -0.251    -0.036    -0.036
 216      -1.215    -1.215     2.430    -0.154    -0.035    -0.035
 217       0.303     0.303    -0.606     0.528    -0.000    -0.000

 Total hyperfine coupling parameters after diagonalization (MHz)
 (convention: |A_zz| > |A_xx| > |A_yy|)
  ion      A_xx      A_yy      A_zz     asymmetry (A_yy - A_xx)/ A_zz
   1      46.097    43.730    47.740      -0.050
   2     -37.959   -37.767   -39.971      -0.005
   3      42.611    41.070    43.958      -0.035
   4     -37.958   -37.767   -39.970      -0.005
   5      37.176    36.516    38.787      -0.017
   6     -37.396   -36.709   -39.190      -0.018
   7      42.617    41.075    43.964      -0.035
   8     -37.397   -36.709   -39.191      -0.018
   9      37.409    36.839    39.168      -0.015
  10     -36.963   -36.330   -38.535      -0.016
  11      37.062    36.442    38.782      -0.016
  12     -36.963   -36.330   -38.535      -0.016
  13      37.015    36.387    38.685      -0.016
  14     -37.462   -36.669   -39.058      -0.020
  15      37.062    36.442    38.782      -0.016
  16     -37.462   -36.669   -39.058      -0.020
  17      36.863    36.413    38.690      -0.012
  18     -36.969   -36.396   -38.673      -0.015
  19      37.071    36.536    38.823      -0.014
  20     -36.970   -36.396   -38.673      -0.015
  21      37.269    36.610    38.952      -0.017
  22     -37.079   -36.472   -38.796      -0.016
  23      37.071    36.537    38.823      -0.014
  24     -37.079   -36.472   -38.795      -0.016
  25      37.409    36.839    39.167      -0.015
  26     -36.963   -36.330   -38.535      -0.016
  27      37.062    36.442    38.782      -0.016
  28     -36.963   -36.330   -38.535      -0.016
  29      37.015    36.387    38.685      -0.016
  30     -37.462   -36.669   -39.058      -0.020
  31      37.062    36.442    38.782      -0.016
  32     -37.462   -36.669   -39.058      -0.020
  33      37.108    36.425    38.832      -0.018
  34     -37.886   -37.334   -39.582      -0.014
  35      37.167    36.485    38.882      -0.018
  36     -37.886   -37.334   -39.582      -0.014
  37      37.000    36.437    38.772      -0.015
  38     -36.668   -36.237   -38.471      -0.011
  39      37.166    36.485    38.882      -0.018
  40     -36.669   -36.237   -38.471      -0.011
  41      36.865    36.387    38.691      -0.012
  42     -36.977   -36.436   -38.710      -0.014
  43      36.923    36.405    38.709      -0.013
  44     -36.977   -36.436   -38.710      -0.014
  45      37.018    36.425    38.742      -0.015
  46     -37.053   -36.444   -38.745      -0.016
  47      36.923    36.405    38.710      -0.013
  48     -37.053   -36.444   -38.744      -0.016
  49      36.864    36.413    38.690      -0.012
  50     -36.970   -36.396   -38.673      -0.015
  51      37.071    36.536    38.823      -0.014
  52     -36.970   -36.396   -38.673      -0.015
  53      37.269    36.610    38.952      -0.017
  54     -37.079   -36.472   -38.795      -0.016
  55      37.071    36.537    38.823      -0.014
  56     -37.079   -36.472   -38.795      -0.016
  57      36.865    36.387    38.691      -0.012
  58     -36.977   -36.436   -38.711      -0.014
  59      36.923    36.405    38.709      -0.013
  60     -36.978   -36.436   -38.711      -0.014
[...]
 203       4.549     3.900     8.204      -0.079
 204       4.175     3.391     7.944      -0.099
 205      -4.363    -3.869    -7.956      -0.062
 206      -4.363    -3.869    -7.956      -0.062
 207       4.549     3.900     8.204      -0.079
 208       4.175     3.391     7.944      -0.099
 209      -4.447    -3.955    -8.028      -0.061
 210      -4.447    -3.956    -8.028      -0.061
 211       4.567     4.065     8.152      -0.062
 212       4.517     4.207     8.009      -0.039
 213      -4.363    -3.869    -7.956      -0.062
 214      -4.363    -3.869    -7.956      -0.062
 215       4.567     4.065     8.152      -0.062
 216       4.517     4.207     8.008      -0.039
 217      -0.542    -0.161     0.896       0.426

 writing wavefunctions

 total charge

[...]

 magnetization (x)

# of ion       s       p       d       tot
    1        0.023   0.024   4.608   4.655
    2       -0.019  -0.020  -4.624  -4.663
    3        0.021   0.021   4.613   4.655
    4       -0.019  -0.020  -4.624  -4.663
    5        0.018   0.018   4.627   4.664
    6       -0.019  -0.019  -4.629  -4.666
    7        0.021   0.021   4.613   4.655
    8       -0.019  -0.019  -4.629  -4.666
    9        0.019   0.019   4.630   4.667
   10       -0.018  -0.018  -4.628  -4.665
   11        0.018   0.018   4.628   4.665
   12       -0.018  -0.018  -4.628  -4.665
   13        0.018   0.018   4.629   4.666
   14       -0.019  -0.018  -4.629  -4.666
   15        0.018   0.018   4.628   4.665
   16       -0.019  -0.018  -4.629  -4.666
   17        0.018   0.019   4.628   4.665
   18       -0.018  -0.018  -4.629  -4.666
   19        0.018   0.018   4.630   4.666
   20       -0.018  -0.018  -4.629  -4.666
   21        0.018   0.018   4.629   4.666
   22       -0.018  -0.018  -4.629  -4.666
   23        0.018   0.018   4.630   4.666
   24       -0.018  -0.018  -4.629  -4.666
   25        0.019   0.019   4.630   4.667
   26       -0.018  -0.018  -4.628  -4.665
   27        0.018   0.018   4.628   4.665
   28       -0.018  -0.018  -4.628  -4.665
   29        0.018   0.018   4.629   4.666
   30       -0.019  -0.018  -4.629  -4.666
   31        0.018   0.018   4.628   4.665
   32       -0.019  -0.018  -4.629  -4.666
   33        0.018   0.019   4.626   4.663
   34       -0.019  -0.020  -4.624  -4.662
   35        0.018   0.019   4.628   4.665
   36       -0.019  -0.020  -4.624  -4.662
   37        0.018   0.019   4.628   4.665
   38       -0.018  -0.018  -4.628  -4.664
   39        0.018   0.019   4.628   4.665
   40       -0.018  -0.018  -4.628  -4.664
   41        0.018   0.018   4.629   4.666
   42       -0.018  -0.018  -4.629  -4.666
   43        0.018   0.018   4.629   4.666
   44       -0.018  -0.018  -4.629  -4.666
   45        0.018   0.018   4.629   4.666
   46       -0.018  -0.018  -4.629  -4.666
   47        0.018   0.018   4.629   4.666
   48       -0.018  -0.018  -4.629  -4.666
   49        0.018   0.019   4.628   4.665
   50       -0.018  -0.018  -4.629  -4.666
   51        0.018   0.018   4.630   4.666
   52       -0.018  -0.018  -4.629  -4.666
   53        0.018   0.018   4.629   4.666
   54       -0.018  -0.018  -4.629  -4.666
   55        0.018   0.018   4.630   4.666
   56       -0.018  -0.018  -4.629  -4.666
   57        0.018   0.018   4.629   4.666
   58       -0.018  -0.018  -4.629  -4.666
   59        0.018   0.018   4.629   4.666
   60       -0.018  -0.018  -4.629  -4.666
[...]
  203        0.002   0.015   0.000   0.017
  204        0.002   0.008   0.000   0.010
  205       -0.002  -0.015   0.000  -0.017
  206       -0.002  -0.015   0.000  -0.017
  207        0.002   0.015   0.000   0.017
  208        0.002   0.008   0.000   0.010
  209       -0.002  -0.015   0.000  -0.017
  210       -0.002  -0.015   0.000  -0.017
  211        0.002   0.016   0.000   0.018
  212        0.002   0.013   0.000   0.015
  213       -0.002  -0.015   0.000  -0.017
  214       -0.002  -0.015   0.000  -0.017
  215        0.002   0.016   0.000   0.018
  216        0.002   0.013   0.000   0.015
  217        0.001   0.000   0.000   0.001
tot          0.007  -0.001  -0.030  -0.024