 vasp.5.4.4.18Apr17-6-g9f103f2a35 (build Nov 21 2017 18:25:41) complex

 executed on         CrayXC-Intel date 2022.04.14  12:34:44

 INCAR:
 POTCAR:    PAW_PBE Mn_pv 02Aug2007
 POTCAR:    PAW_PBE F 08Apr2002
 POTCAR:    PAW_PBE H 15Jun2001

 POTCAR:    PAW_PBE Mn_pv 02Aug2007
   VRHFIN =Mn: 3p4s3d

   TITEL  = PAW_PBE Mn_pv 02Aug2007
   POMASS =   54.938; ZVAL   =   13.000    mass and valenz
   ENMAX  =  269.864; ENMIN  =  202.398 eV

 POTCAR:    PAW_PBE F 08Apr2002
   VRHFIN =F: s2p5

   TITEL  = PAW_PBE F 08Apr2002
   POMASS =   18.998; ZVAL   =    7.000    mass and valenz
   ENMAX  =  400.000; ENMIN  =  300.000 eV

 POTCAR:    PAW_PBE H 15Jun2001
   VRHFIN =H: ultrasoft test

   TITEL  = PAW_PBE H 15Jun2001
   POMASS =    1.000; ZVAL   =    1.000    mass and valenz
   ENMAX  =  250.000; ENMIN  =  200.000 eV

  PAW_PBE Mn_pv 02Aug2007               :
  PAW_PBE F 08Apr2002                   :
  PAW_PBE H 15Jun2001                   :

 POSCAR: Mn  F  H
  positions in direct lattice
  velocities in cartesian coordinates
 exchange correlation table for  LEXCH =       14
   RHO(1)=    0.500       N(1)  =     2000
   RHO(2)=  100.500       N(2)  =     4000

 ion  position               nearest neighbor table
   1  0.166  0.174  0.127-  73 2.08  74 2.11  80 2.11  76 2.12  79 2.13  75 2.14
   2  0.020  0.998  0.000- 117 2.10 105 2.10  75 2.10 204 2.17 182 2.18 170 2.18
   3  0.166  0.168  0.375-  77 2.10  78 2.10  83 2.12  80 2.13  84 2.13  79 2.13
   4  0.001  0.001  0.250- 208 2.09  79 2.10 170 2.12 174 2.12 109 2.13 105 2.13
   5  0.166  0.168  0.625-  81 2.10  82 2.10  83 2.12  88 2.13  84 2.13  87 2.13
   6  0.001  0.999  0.500- 212 2.09  83 2.10 109 2.13 113 2.13 174 2.13 178 2.13
   7  0.166  0.174  0.874-  85 2.08  86 2.11  88 2.11  76 2.12  87 2.13  75 2.14
   8  0.001  0.001  0.750- 216 2.09  87 2.10 182 2.12 178 2.12 113 2.13 117 2.13
   9  0.167  0.500  0.125-  89 2.10  90 2.10  92 2.13  91 2.13  96 2.13  95 2.13
  10  0.998  0.336  0.000- 172 2.09  91 2.10 186 2.13 198 2.13  73 2.13  85 2.13
  11  0.167  0.500  0.375-  93 2.10  94 2.10  95 2.12  96 2.12  99 2.13 100 2.13
  12  0.998  0.336  0.251-  95 2.10 176 2.10  73 2.11 190 2.11 186 2.13  77 2.14
  13  0.167  0.500  0.625-  98 2.10  97 2.10 104 2.12 103 2.12 100 2.13  99 2.13
  14  0.999  0.334  0.500-  99 2.09 180 2.10  77 2.12  81 2.12 194 2.13 190 2.13
  15  0.167  0.500  0.875- 101 2.10 102 2.10  91 2.13  92 2.13 103 2.13 104 2.13
  16  0.998  0.336  0.749- 103 2.10 184 2.10  85 2.11 194 2.11 198 2.13  81 2.14
  17  0.168  0.826  0.127- 106 2.08 105 2.11 111 2.11 107 2.12 112 2.13 108 2.14
  18  0.998  0.665  0.000- 188 2.09 107 2.10 214 2.13 202 2.13  89 2.13 101 2.13
  19  0.167  0.832  0.375- 110 2.10 109 2.10 116 2.12 111 2.13 115 2.13 112 2.13
  20  0.999  0.665  0.250- 192 2.09 111 2.10 202 2.13  93 2.13 206 2.13  89 2.13
  21  0.167  0.832  0.625- 114 2.10 113 2.10 116 2.12 119 2.13 115 2.13 120 2.13
  22  0.999  0.666  0.500- 196 2.10 115 2.10  97 2.13  93 2.13 210 2.13 206 2.13
  23  0.168  0.826  0.874- 118 2.08 117 2.11 119 2.11 107 2.12 120 2.13 108 2.14
  24  0.999  0.665  0.750- 200 2.09 119 2.10 214 2.13  97 2.13 210 2.13 101 2.13
  25  0.496  0.163  0.124- 121 2.09 122 2.10 127 2.12 124 2.13 123 2.14 128 2.15
  26  0.314  0.002  0.000-  74 2.10  86 2.10 108 2.10 123 2.17 153 2.18 165 2.18
  27  0.500  0.166  0.375- 125 2.09 126 2.09 128 2.12 132 2.13 127 2.13 131 2.13
  28  0.332  0.999  0.250- 127 2.09 112 2.10 153 2.12 157 2.12  78 2.13  74 2.13
  29  0.500  0.166  0.625- 129 2.09 130 2.09 136 2.12 132 2.13 135 2.13 131 2.13
  30  0.332  0.001  0.500- 131 2.09 116 2.10  82 2.13  78 2.13 161 2.13 157 2.13
  31  0.496  0.163  0.876- 133 2.09 134 2.10 135 2.12 124 2.13 123 2.14 136 2.15
  32  0.332  0.999  0.750- 135 2.09 120 2.10 165 2.12 161 2.12  82 2.13  86 2.13
  33  0.504  0.500  0.125- 138 2.09 137 2.09 140 2.12 144 2.13 139 2.13 143 2.13
  34  0.335  0.335  0.000- 139 2.09  76 2.10 133 2.13 121 2.13 102 2.13  90 2.13
  35  0.502  0.499  0.375- 142 2.09 141 2.10 143 2.13 148 2.13 144 2.13 147 2.13
  36  0.335  0.335  0.250- 143 2.09  80 2.10 121 2.13  94 2.13 125 2.13  90 2.13
  37  0.502  0.499  0.625- 146 2.09 145 2.10 151 2.13 148 2.13 152 2.13 147 2.13
  38  0.334  0.334  0.500- 147 2.10  84 2.10  94 2.13  98 2.13 125 2.13 129 2.13
  39  0.504  0.500  0.875- 150 2.09 149 2.09 140 2.12 152 2.13 139 2.13 151 2.13
  40  0.335  0.335  0.750- 151 2.09  88 2.10 133 2.13  98 2.13 129 2.13 102 2.13
  41  0.496  0.837  0.124- 153 2.11 154 2.12 156 2.12 155 2.12 159 2.13 160 2.13
  42  0.335  0.664  0.000- 155 2.09  92 2.10 149 2.13 137 2.13 118 2.13 106 2.13
  43  0.499  0.834  0.375- 158 2.09 157 2.09 163 2.13 164 2.13 160 2.13 159 2.13
  44  0.336  0.664  0.251-  96 2.10 159 2.10 106 2.11 141 2.11 137 2.13 110 2.14
  45  0.499  0.834  0.625- 162 2.09 161 2.09 163 2.13 164 2.13 168 2.13 167 2.13
  46  0.334  0.666  0.500- 100 2.09 163 2.09 110 2.12 114 2.12 141 2.13 145 2.13
  47  0.496  0.837  0.876- 165 2.11 166 2.12 156 2.12 155 2.12 167 2.13 168 2.13
  48  0.336  0.664  0.749- 104 2.10 167 2.10 118 2.11 145 2.11 149 2.13 114 2.14
  49  0.837  0.163  0.124- 170 2.11 169 2.12 171 2.12 172 2.12 176 2.13 175 2.13
  50  0.667  1.000  0.000- 171 2.10 156 2.10 134 2.13 213 2.13 201 2.13 122 2.13
  51  0.834  0.166  0.375- 173 2.09 174 2.09 180 2.13 179 2.13 175 2.13 176 2.13
  52  0.667  1.000  0.249- 175 2.10 160 2.10 126 2.13 205 2.13 122 2.13 201 2.13
  53  0.834  0.166  0.625- 177 2.09 178 2.09 180 2.13 179 2.13 183 2.13 184 2.13
  54  0.667  1.000  0.500- 179 2.09 164 2.09 205 2.13 126 2.13 130 2.13 209 2.13
  55  0.837  0.163  0.876- 182 2.11 181 2.12 171 2.12 172 2.12 184 2.13 183 2.13
  56  0.667  1.000  0.751- 168 2.10 183 2.10 209 2.13 130 2.13 134 2.13 213 2.13
  57  0.830  0.500  0.125- 185 2.09 186 2.09 187 2.12 191 2.13 188 2.13 192 2.13
  58  0.667  0.328  0.000- 187 2.11 124 2.11 181 2.12 169 2.12 150 2.13 138 2.13
  59  0.831  0.501  0.375- 189 2.09 190 2.10 192 2.13 195 2.13 191 2.13 196 2.13
  60  0.667  0.330  0.249- 128 2.10 191 2.10 138 2.13 173 2.13 169 2.13 142 2.13
[...]
 202  0.935  0.732  0.126-  65 2.09  20 2.13  18 2.13
 203  0.770  0.772  0.000-  66 2.11  65 2.13  71 2.13
 204  0.909  0.900  0.000-  71 2.14  65 2.14   2 2.17
 205  0.731  0.934  0.375-  67 2.09  52 2.13  54 2.13
 206  0.934  0.731  0.375-  67 2.09  22 2.13  20 2.13
 207  0.769  0.770  0.248-  68 2.10  67 2.12  65 2.15
 208  0.900  0.900  0.251-   4 2.09  65 2.12  67 2.13
 209  0.731  0.934  0.625-  69 2.09  56 2.13  54 2.13
 210  0.934  0.731  0.625-  69 2.09  22 2.13  24 2.13
 211  0.768  0.769  0.500-  70 2.09  69 2.13  67 2.13
 212  0.899  0.898  0.500-   6 2.09  69 2.13  67 2.13
 213  0.734  0.936  0.875-  71 2.10  50 2.13  56 2.13
 214  0.935  0.732  0.875-  71 2.09  24 2.13  18 2.13
 215  0.769  0.770  0.752-  72 2.10  69 2.12  71 2.15
 216  0.900  0.900  0.749-   8 2.09  71 2.12  69 2.13
 217  0.167  1.000  0.000-

IMPORTANT INFORMATION: All symmetrisations will be switched off!
NOSYMM: (Re-)initialisation of all symmetry stuff for point group C_1.

 KPOINTS: KPOINTS created by Atomic Simulation Env

Automatic generation of k-mesh.
Space group operators:
 irot       det(A)        alpha          n_x          n_y          n_z        tau_x        tau_y        tau_z
    1     1.000000     0.000000     1.000000     0.000000     0.000000     0.000000     0.000000     0.000000

 Subroutine IBZKPT returns following result:

 Found      4 irreducible k-points:

 Following reciprocal coordinates:
            Coordinates               Weight
  0.250000  0.250000  0.250000      2.000000
 -0.250000  0.250000  0.250000      2.000000
  0.250000 -0.250000  0.250000      2.000000
 -0.250000 -0.250000  0.250000      2.000000

 Following cartesian coordinates:
            Coordinates               Weight
  0.017111  0.017111  0.018996      2.000000
 -0.017111  0.017111  0.018996      2.000000
  0.017111 -0.017111  0.018996      2.000000
 -0.017111 -0.017111  0.018996      2.000000

 SYSTEM =  unknown system
 POSCAR =  Mn  F  H

 Startparameter for this run:
   NWRITE =      2    write-flag & timer
   PREC   = normal    normal or accurate (medium, high low for compatibility)
   ISTART =      0    job   : 0-new  1-cont  2-samecut
   ICHARG =      1    charge: 1-file 2-atom 10-const
   ISPIN  =      2    spin polarized calculation?
   LNONCOLLINEAR =      F non collinear calculations
   LSORBIT =      F    spin-orbit coupling
   INIWAV =      1    electr: 0-lowe 1-rand  2-diag
   LASPH  =      T    aspherical Exc in radial PAW
   METAGGA=      F    non-selfconsistent MetaGGA calc.

 Electronic Relaxation 1
   ENCUT  =  700.0 eV  51.45 Ry    7.17 a.u.  31.52 31.52 28.39*2*pi/ulx,y,z
   ENINI  =  700.0     initial cutoff
   ENAUG  =  613.6 eV  augmentation charge cutoff
   NELM   =     60;   NELMIN=  2; NELMDL= -5     # of ELM steps
   EDIFF  = 0.1E-06   stopping-criterion for ELM
   LREAL  =      F    real-space projection
   NLSPLINE    = F    spline interpolate recip. space projectors
   LCOMPAT=      F    compatible to vasp.4.4
   GGA_COMPAT  = T    GGA compatible to vasp.4.4-vasp.4.6
   LMAXPAW     = -100 max onsite density
   LMAXMIX     =    4 max onsite mixed and CHGCAR
   VOSKOWN=      0    Vosko Wilk Nusair interpolation
   ROPT   =    0.00000   0.00000   0.00000
 Ionic relaxation
   EDIFFG = -.5E-02   stopping-criterion for IOM
   NSW    =      0    number of steps for IOM
   NBLOCK =      1;   KBLOCK =      1    inner block; outer block
   IBRION =     -1    ionic relax: 0-MD 1-quasi-New 2-CG
   NFREE  =      0    steps in history (QN), initial steepest desc. (CG)
   ISIF   =      2    stress and relaxation
   IWAVPR =     10    prediction:  0-non 1-charg 2-wave 3-comb
   ISYM   =      0    0-nonsym 1-usesym 2-fastsym
   LCORR  =      T    Harris-Foulkes like correction to forces

   POTIM  = 0.5500    time-step for ionic-motion
   TEIN   =    0.0    initial temperature
   TEBEG  =    0.0;   TEEND  =   0.0 temperature during run
   SMASS  =  -3.00    Nose mass-parameter (am)
   estimated Nose-frequenzy (Omega)   =  0.10E-29 period in steps =****** mass=  -0.488E-26a.u.
   SCALEE = 1.0000    scale energy and forces
   NPACO  =    256;   APACO  = 16.0  distance and # of slots for P.C.
   PSTRESS=    0.0 pullay stress

  Mass of Ions in am
   POMASS =  54.94 19.00  1.00
  Ionic Valenz
   ZVAL   =  13.00  7.00  1.00
  Atomic Wigner-Seitz radii
  virtual crystal weights
   VCA    =   1.00  1.00  1.00
   NELECT =    1945.0000    total number of electrons
   NUPDOWN=      -1.0000    fix difference up-down

 DOS related values:
   EMIN   =  10.00;   EMAX   =-10.00  energy-range for DOS
   EFERMI =   0.00
   ISMEAR =     0;   SIGMA  =   0.02  broadening in eV -4-tet -1-fermi 0-gaus

 Electronic relaxation 2 (details)
   IALGO  =     68    algorithm
   LDIAG  =      T    sub-space diagonalisation (order eigenvalues)
   LSUBROT=      F    optimize rotation matrix (better conditioning)
   TURBO    =      0    0=normal 1=particle mesh
   IRESTART =      0    0=no restart 2=restart with 2 vectors
   NREBOOT  =      0    no. of reboots
   NMIN     =      0    reboot dimension
[...]

 Fermi contact (isotropic) hyperfine coupling parameter (MHz)
  ion      A_pw      A_1PS     A_1AE     A_1c      A_tot
   1     120.651   120.642    36.814  -114.187    36.823
   2    -118.699  -118.689   -35.240   112.265   -35.250
   3     120.720   120.711    36.124  -114.288    36.133
   4    -120.594  -120.585   -36.181   114.124   -36.190
   5     120.720   120.711    36.124  -114.288    36.133
   6    -120.715  -120.705   -36.226   114.280   -36.235
   7     120.651   120.642    36.814  -114.187    36.823
   8    -120.594  -120.585   -36.180   114.124   -36.189
   9     120.732   120.723    36.361  -114.316    36.370
  10    -120.731  -120.722   -36.536   114.317   -36.546
  11     120.706   120.697    36.156  -114.247    36.165
  12    -120.697  -120.688   -36.289   114.232   -36.298
  13     120.706   120.697    36.156  -114.247    36.165
  14    -120.705  -120.696   -36.065   114.249   -36.074
  15     120.732   120.723    36.361  -114.316    36.370
  16    -120.697  -120.688   -36.290   114.232   -36.299
  17     120.651   120.642    36.813  -114.187    36.822
  18    -120.708  -120.698   -36.376   114.267   -36.385
  19     120.720   120.711    36.124  -114.288    36.133
  20    -120.709  -120.700   -36.196   114.261   -36.205
  21     120.720   120.711    36.124  -114.288    36.133
  22    -120.720  -120.711   -36.111   114.287   -36.119
  23     120.651   120.642    36.813  -114.187    36.822
  24    -120.709  -120.700   -36.196   114.262   -36.205
  25     120.737   120.728    36.139  -114.351    36.148
  26    -118.715  -118.705   -35.268   112.283   -35.277
  27     120.720   120.710    36.307  -114.293    36.316
  28    -120.594  -120.585   -36.181   114.125   -36.190
  29     120.720   120.710    36.308  -114.293    36.317
  30    -120.715  -120.706   -36.227   114.280   -36.236
  31     120.737   120.728    36.138  -114.351    36.147
  32    -120.594  -120.585   -36.181   114.125   -36.190
  33     120.715   120.706    36.219  -114.281    36.228
  34    -120.708  -120.698   -36.376   114.267   -36.385
  35     120.715   120.706    36.227  -114.279    36.236
  36    -120.709  -120.700   -36.197   114.262   -36.206
  37     120.715   120.706    36.226  -114.279    36.236
  38    -120.720  -120.711   -36.110   114.287   -36.119
  39     120.715   120.706    36.218  -114.281    36.227
  40    -120.709  -120.700   -36.196   114.261   -36.206
  41     120.758   120.749    36.152  -114.392    36.161
  42    -120.731  -120.722   -36.535   114.317   -36.545
  43     120.717   120.708    36.371  -114.287    36.380
  44    -120.697  -120.688   -36.289   114.232   -36.298
  45     120.717   120.708    36.370  -114.287    36.379
  46    -120.705  -120.696   -36.064   114.249   -36.073
  47     120.758   120.749    36.152  -114.392    36.161
  48    -120.697  -120.688   -36.289   114.232   -36.298
  49     120.758   120.749    36.152  -114.392    36.161
  50    -120.712  -120.702   -36.111   114.261   -36.120
  51     120.717   120.708    36.370  -114.287    36.379
  52    -120.734  -120.725   -36.245   114.326   -36.254
  53     120.717   120.708    36.370  -114.287    36.380
  54    -120.719  -120.710   -36.356   114.289   -36.365
  55     120.758   120.749    36.152  -114.392    36.161
  56    -120.734  -120.725   -36.245   114.326   -36.254
  57     120.715   120.706    36.219  -114.281    36.228
  58    -120.749  -120.740   -35.891   114.370   -35.900
  59     120.715   120.706    36.227  -114.279    36.236
  60    -120.728  -120.719   -36.213   114.315   -36.222
[...]
 203       1.090     1.087     6.395    -0.795     6.399
 204       1.183     1.179     6.479    -0.893     6.483
 205      -1.040    -1.037    -6.250     0.750    -6.253
 206      -1.047    -1.044    -6.301     0.755    -6.305
 207       1.006     1.002     6.218    -0.714     6.221
 208       1.033     1.029     6.273    -0.741     6.276
 209      -1.040    -1.037    -6.250     0.750    -6.253
 210      -1.047    -1.044    -6.301     0.754    -6.305
 211       1.027     1.024     6.283    -0.734     6.286
 212       1.007     1.004     6.241    -0.715     6.244
 213      -1.061    -1.058    -6.369     0.766    -6.373
 214      -1.056    -1.053    -6.329     0.762    -6.332
 215       1.006     1.002     6.218    -0.714     6.222
 216       1.033     1.029     6.272    -0.741     6.276
 217      14.794    14.751    24.101     0.000    24.144

 Dipolar hyperfine coupling parameters (MHz)
  ion      A_xx      A_yy      A_zz      A_xy      A_xz      A_yz
   1      -0.454    -0.861     1.315    -0.279     0.112    -0.131
   2       4.397    -1.549    -2.848    -0.275    -0.000     0.000
   3      -0.640    -0.644     1.283    -0.220     0.004    -0.041
   4       0.593     0.642    -1.234    -0.340    -0.036     0.143
   5      -0.640    -0.644     1.283    -0.220    -0.004     0.041
   6       0.616     0.634    -1.250    -0.250    -0.000    -0.000
   7      -0.454    -0.861     1.315    -0.279    -0.112     0.131
   8       0.593     0.642    -1.234    -0.340     0.035    -0.143
   9      -0.628    -0.655     1.282    -0.248     0.000    -0.000
  10       0.583     0.742    -1.325    -0.309    -0.000    -0.000
  11      -0.609    -0.679     1.287    -0.217     0.000     0.000
  12       0.618     0.670    -1.288    -0.235     0.057    -0.013
  13      -0.609    -0.679     1.287    -0.217     0.000     0.000
  14       0.598     0.654    -1.251    -0.222    -0.000    -0.000
  15      -0.628    -0.655     1.282    -0.249    -0.000     0.000
  16       0.618     0.670    -1.288    -0.235    -0.057     0.013
  17      -0.454    -0.861     1.315    -0.279    -0.112     0.131
  18       0.649     0.638    -1.287    -0.260    -0.000     0.000
  19      -0.640    -0.644     1.283    -0.220    -0.004     0.041
  20       0.610     0.664    -1.274    -0.237    -0.031    -0.021
  21      -0.640    -0.644     1.283    -0.220     0.004    -0.041
  22       0.628     0.641    -1.269    -0.216    -0.000    -0.000
  23      -0.454    -0.861     1.315    -0.279     0.112    -0.131
  24       0.610     0.664    -1.274    -0.237     0.031     0.021
  25      -0.585    -0.624     1.209    -0.203    -0.003    -0.033
  26       4.370    -1.535    -2.835    -0.274    -0.000    -0.000
  27      -0.629    -0.654     1.283    -0.263     0.016     0.022
  28       0.593     0.642    -1.234    -0.340     0.035    -0.143
  29      -0.629    -0.654     1.283    -0.263    -0.016    -0.022
  30       0.616     0.634    -1.250    -0.250    -0.000    -0.000
  31      -0.585    -0.624     1.209    -0.203     0.003     0.033
  32       0.593     0.642    -1.234    -0.340    -0.035     0.143
  33      -0.634    -0.622     1.256    -0.251    -0.016     0.006
  34       0.649     0.638    -1.287    -0.260     0.000    -0.000
  35      -0.641    -0.624     1.265    -0.250    -0.015     0.011
  36       0.610     0.664    -1.274    -0.237     0.031     0.021
  37      -0.641    -0.624     1.265    -0.250     0.015    -0.011
  38       0.628     0.641    -1.269    -0.216    -0.000    -0.000
  39      -0.634    -0.622     1.256    -0.251     0.016    -0.006
  40       0.610     0.664    -1.274    -0.237    -0.031    -0.021
  41      -0.630    -0.657     1.287    -0.172     0.054    -0.071
  42       0.583     0.742    -1.325    -0.309    -0.000    -0.000
  43      -0.633    -0.650     1.282    -0.275     0.024    -0.026
  44       0.618     0.670    -1.288    -0.235    -0.057     0.013
  45      -0.633    -0.650     1.282    -0.275    -0.024     0.026
  46       0.598     0.654    -1.251    -0.222    -0.000    -0.000
  47      -0.630    -0.657     1.287    -0.172    -0.054     0.071
  48       0.618     0.670    -1.288    -0.235     0.057    -0.013
  49      -0.630    -0.657     1.287    -0.172    -0.054     0.072
  50       0.674     0.633    -1.307    -0.217    -0.000     0.000
  51      -0.633    -0.650     1.282    -0.275    -0.024     0.026
  52       0.594     0.672    -1.266    -0.235    -0.000    -0.000
  53      -0.633    -0.650     1.282    -0.275     0.024    -0.026
  54       0.653     0.622    -1.274    -0.267    -0.000    -0.000
  55      -0.630    -0.657     1.287    -0.172     0.054    -0.072
  56       0.594     0.672    -1.266    -0.235     0.000    -0.000
  57      -0.634    -0.622     1.256    -0.251     0.016    -0.006
  58       0.648     0.639    -1.288    -0.159    -0.000    -0.000
  59      -0.641    -0.624     1.265    -0.250     0.015    -0.011
  60       0.635     0.633    -1.269    -0.236    -0.031    -0.031
[...]
 203      -1.373    -1.356     2.729    -0.066     0.000     0.000
 204      -1.333    -1.315     2.648    -0.505     0.000     0.000
 205       1.486     1.362    -2.848    -0.264    -0.013    -0.010
 206       1.395     1.429    -2.824    -0.240    -0.007    -0.041
 207      -1.413    -1.451     2.864    -0.172    -0.043    -0.026
 208      -1.434    -1.446     2.880    -0.328    -0.060    -0.050
 209       1.485     1.362    -2.848    -0.264     0.013     0.010
 210       1.395     1.429    -2.824    -0.240     0.007     0.041
 211      -1.410    -1.460     2.870    -0.244    -0.000     0.000
 212      -1.407    -1.448     2.855    -0.276    -0.000    -0.000
 213       1.446     1.357    -2.803    -0.213     0.061     0.010
 214       1.368     1.498    -2.865    -0.262    -0.025     0.029
 215      -1.413    -1.451     2.864    -0.172     0.043     0.026
 216      -1.434    -1.446     2.880    -0.328     0.060     0.050
 217      -4.464     3.117     1.348    -0.056    -0.000    -0.000

 Total hyperfine coupling parameters after diagonalization (MHz)
 (convention: |A_zz| > |A_xx| > |A_yy|)
  ion      A_xx      A_yy      A_zz     asymmetry (A_yy - A_xx)/ A_zz
   1      36.496    35.819    38.155      -0.018
   2     -36.812   -30.840   -38.098      -0.157
   3      35.711    35.271    37.417      -0.012
   4     -35.911   -35.224   -37.436      -0.018
   5      35.711    35.271    37.417      -0.012
   6     -35.860   -35.360   -37.485      -0.013
   7      36.496    35.818    38.155      -0.018
   8     -35.910   -35.224   -37.435      -0.018
   9      35.978    35.480    37.652      -0.013
  10     -36.202   -35.564   -37.871      -0.017
  11      35.741    35.302    37.452      -0.012
  12     -35.890   -35.417   -37.588      -0.013
  13      35.741    35.301    37.452      -0.012
  14     -35.672   -35.224   -37.326      -0.012
  15      35.977    35.480    37.652      -0.013
  16     -35.890   -35.418   -37.588      -0.013
  17      36.495    35.818    38.154      -0.018
  18     -36.002   -35.482   -37.672      -0.014
  19      35.711    35.271    37.417      -0.012
  20     -35.806   -35.330   -37.480      -0.013
  21      35.711    35.271    37.417      -0.012
  22     -35.701   -35.269   -37.388      -0.012
  23      36.495    35.818    38.154      -0.018
  24     -35.806   -35.330   -37.480      -0.013
  25      35.747    35.338    37.357      -0.011
  26     -36.825   -30.895   -38.113      -0.156
  27      35.938    35.412    37.600      -0.014
  28     -35.911   -35.225   -37.436      -0.018
  29      35.938    35.412    37.600      -0.014
  30     -35.861   -35.361   -37.486      -0.013
  31      35.747    35.338    37.357      -0.011
  32     -35.911   -35.225   -37.436      -0.018
  33      35.851    35.349    37.484      -0.013
  34     -36.002   -35.482   -37.672      -0.014
  35      35.853    35.354    37.501      -0.013
  36     -35.806   -35.331   -37.481      -0.013
  37      35.853    35.353    37.501      -0.013
  38     -35.701   -35.269   -37.388      -0.012
  39      35.850    35.349    37.483      -0.013
  40     -35.806   -35.330   -37.481      -0.013
  41      35.685    35.344    37.452      -0.009
  42     -36.201   -35.564   -37.870      -0.017
  43      36.013    35.464    37.663      -0.015
  44     -35.890   -35.417   -37.588      -0.013
  45      36.012    35.463    37.662      -0.015
  46     -35.671   -35.223   -37.324      -0.012
  47      35.686    35.345    37.453      -0.009
  48     -35.890   -35.417   -37.588      -0.013
  49      35.686    35.345    37.453      -0.009
  50     -35.684   -35.249   -37.427      -0.012
  51      36.012    35.463    37.663      -0.015
  52     -35.859   -35.383   -37.520      -0.013
  53      36.012    35.464    37.663      -0.015
  54     -35.995   -35.461   -37.639      -0.014
  55      35.686    35.345    37.453      -0.009
  56     -35.859   -35.383   -37.520      -0.013
  57      35.851    35.349    37.484      -0.013
  58     -35.416   -35.097   -37.188      -0.009
  59      35.853    35.354    37.501      -0.013
  60     -35.823   -35.352   -37.492      -0.013
[...]
 203       5.101     4.968     9.127      -0.014
 204       5.665     4.654     9.131      -0.111
 205      -5.100    -4.559    -9.101      -0.060
 206      -5.133    -4.652    -9.130      -0.053
 207       4.963     4.616     9.086      -0.038
 208       5.164     4.507     9.158      -0.072
 209      -5.100    -4.558    -9.101      -0.060
 210      -5.133    -4.652    -9.130      -0.053
 211       5.096     4.606     9.157      -0.054
 212       5.094     4.539     9.099      -0.061
 213      -5.188    -4.753    -9.177      -0.047
 214      -5.169    -4.629    -9.198      -0.059
 215       4.963     4.616     9.086      -0.038
 216       5.164     4.506     9.157      -0.072
 217      25.492    19.679    27.261      -0.213

 writing wavefunctions

 total charge

[...]

 magnetization (x)

# of ion       s       p       d       tot
    1        0.018   0.018   4.566   4.602
    2       -0.017  -0.017  -4.481  -4.514
    3        0.018   0.018   4.569   4.604
    4       -0.018  -0.018  -4.563  -4.598
    5        0.018   0.018   4.569   4.604
    6       -0.018  -0.018  -4.568  -4.604
    7        0.018   0.018   4.566   4.602
    8       -0.018  -0.018  -4.563  -4.598
    9        0.018   0.018   4.569   4.605
   10       -0.018  -0.018  -4.569  -4.605
   11        0.018   0.018   4.568   4.603
   12       -0.018  -0.018  -4.568  -4.603
   13        0.018   0.018   4.568   4.603
   14       -0.018  -0.018  -4.568  -4.603
   15        0.018   0.018   4.569   4.605
   16       -0.018  -0.018  -4.568  -4.603
   17        0.018   0.018   4.566   4.602
   18       -0.018  -0.018  -4.568  -4.604
   19        0.018   0.018   4.569   4.604
   20       -0.018  -0.018  -4.568  -4.603
   21        0.018   0.018   4.569   4.604
   22       -0.018  -0.018  -4.569  -4.604
   23        0.018   0.018   4.566   4.602
   24       -0.018  -0.018  -4.568  -4.603
   25        0.018   0.018   4.570   4.605
   26       -0.017  -0.017  -4.482  -4.515
   27        0.018   0.018   4.569   4.604
   28       -0.018  -0.018  -4.563  -4.598
   29        0.018   0.018   4.569   4.604
   30       -0.018  -0.018  -4.568  -4.604
   31        0.018   0.018   4.570   4.605
   32       -0.018  -0.018  -4.563  -4.598
   33        0.018   0.018   4.569   4.604
   34       -0.018  -0.018  -4.568  -4.604
   35        0.018   0.018   4.568   4.604
   36       -0.018  -0.018  -4.568  -4.603
   37        0.018   0.018   4.568   4.604
   38       -0.018  -0.018  -4.569  -4.604
   39        0.018   0.018   4.569   4.604
   40       -0.018  -0.018  -4.568  -4.603
   41        0.018   0.018   4.571   4.606
   42       -0.018  -0.018  -4.569  -4.605
   43        0.018   0.018   4.569   4.604
   44       -0.018  -0.018  -4.568  -4.603
   45        0.018   0.018   4.569   4.604
   46       -0.018  -0.018  -4.568  -4.603
   47        0.018   0.018   4.571   4.606
   48       -0.018  -0.018  -4.568  -4.603
   49        0.018   0.018   4.571   4.606
   50       -0.018  -0.018  -4.568  -4.603
   51        0.018   0.018   4.569   4.604
   52       -0.018  -0.018  -4.569  -4.605
   53        0.018   0.018   4.569   4.604
   54       -0.018  -0.018  -4.569  -4.604
   55        0.018   0.018   4.571   4.606
   56       -0.018  -0.018  -4.569  -4.605
   57        0.018   0.018   4.569   4.604
   58       -0.017  -0.018  -4.570  -4.605
   59        0.018   0.018   4.568   4.604
   60       -0.018  -0.018  -4.569  -4.604
[...]
  203        0.002   0.021   0.000   0.023
  204        0.002   0.023   0.000   0.025
  205       -0.002  -0.020   0.000  -0.022
  206       -0.002  -0.020   0.000  -0.022
  207        0.002   0.019   0.000   0.021
  208        0.002   0.019   0.000   0.021
  209       -0.002  -0.020   0.000  -0.022
  210       -0.002  -0.020   0.000  -0.022
  211        0.002   0.019   0.000   0.021
  212        0.002   0.019   0.000   0.021
  213       -0.002  -0.020   0.000  -0.022
  214       -0.002  -0.020   0.000  -0.022
  215        0.002   0.019   0.000   0.021
  216        0.002   0.019   0.000   0.021
  217        0.268  -0.001   0.000   0.268
tot          0.281   0.155   0.200   0.636