 vasp.5.4.4.18Apr17-6-g9f103f2a35 (build Nov 21 2017 18:25:41) complex

 executed on         CrayXC-Intel date 2022.04.10  23:48:45

 INCAR:
 POTCAR:    PAW_PBE Mn_pv 02Aug2007
 POTCAR:    PAW_PBE F 08Apr2002
 POTCAR:    PAW_PBE H 15Jun2001

 POTCAR:    PAW_PBE Mn_pv 02Aug2007
   VRHFIN =Mn: 3p4s3d

   TITEL  = PAW_PBE Mn_pv 02Aug2007
   POMASS =   54.938; ZVAL   =   13.000    mass and valenz
   ENMAX  =  269.864; ENMIN  =  202.398 eV

 POTCAR:    PAW_PBE F 08Apr2002
   VRHFIN =F: s2p5

   TITEL  = PAW_PBE F 08Apr2002
   POMASS =   18.998; ZVAL   =    7.000    mass and valenz
   ENMAX  =  400.000; ENMIN  =  300.000 eV

 POTCAR:    PAW_PBE H 15Jun2001
   VRHFIN =H: ultrasoft test

   TITEL  = PAW_PBE H 15Jun2001
   POMASS =    1.000; ZVAL   =    1.000    mass and valenz
   ENMAX  =  250.000; ENMIN  =  200.000 eV

  PAW_PBE Mn_pv 02Aug2007               :
  PAW_PBE F 08Apr2002                   :
  PAW_PBE H 15Jun2001                   :

 POSCAR: Mn  F  H
  positions in direct lattice
  velocities in cartesian coordinates
 exchange correlation table for  LEXCH =       14
   RHO(1)=    0.500       N(1)  =     2000
   RHO(2)=  100.500       N(2)  =     4000

 ion  position               nearest neighbor table
   1  0.161  0.162  0.130- 217 1.99  74 2.09  73 2.09  75 2.12  79 2.13  76 2.17   3 3.16
   2  0.999  0.999  1.000- 203 2.08  75 2.09 116 2.11 181 2.13 169 2.14 104 2.14
   3  0.161  0.162  0.370- 217 2.00  78 2.09  77 2.09  82 2.12  79 2.13  83 2.17   1 3.16
   4  0.008  0.007  0.250- 217 1.96 108 2.12 104 2.12 169 2.12 173 2.12 207 2.15
   5  0.169  0.163  0.625-  81 2.09  80 2.12  87 2.13  86 2.13  82 2.14  83 2.14
   6  0.999  0.999  0.500- 211 2.08  82 2.09 112 2.11 177 2.13 173 2.14 108 2.14
   7  0.169  0.163  0.875-  85 2.09  84 2.12  87 2.13  86 2.13  75 2.14  76 2.14
   8  0.000  0.997  0.750-  86 2.10 215 2.10 112 2.13 116 2.13 177 2.14 181 2.14
   9  0.166  0.499  0.125-  89 2.09  88 2.09  91 2.12  90 2.13  94 2.13  95 2.14
  10  0.001  0.333  0.998-  90 2.09 171 2.11  84 2.12 197 2.13 185 2.13  73 2.14
  11  0.166  0.499  0.376-  93 2.09  92 2.09  99 2.12  98 2.13  94 2.13  95 2.14
  12  0.999  0.333  0.250- 175 2.09  94 2.09 189 2.13 185 2.13  73 2.13  77 2.13
  13  0.171  0.503  0.627-  96 2.10  97 2.10  99 2.12 103 2.12 102 2.13  98 2.17
  14  0.001  0.333  0.502-  98 2.09 179 2.11  80 2.12 193 2.13 189 2.13  77 2.14
  15  0.171  0.503  0.873- 100 2.10 101 2.10  91 2.12 103 2.12 102 2.13  90 2.17
  16  0.001  0.334  0.750- 183 2.11 102 2.11 193 2.13 197 2.13  84 2.13  80 2.14
  17  0.168  0.833  0.125- 105 2.09 104 2.10 111 2.12 107 2.12 106 2.12 110 2.13
  18  0.999  0.666  1.000- 106 2.10 187 2.10 213 2.12 100 2.13 201 2.13  88 2.13
  19  0.168  0.833  0.375- 109 2.09 108 2.10 111 2.12 115 2.12 114 2.12 110 2.13
  20  0.001  0.666  0.250- 110 2.10 191 2.10 205 2.12 201 2.12  88 2.13  92 2.13
  21  0.167  0.832  0.625- 113 2.09 112 2.10 119 2.11 118 2.13 115 2.13 114 2.13
  22  0.999  0.666  0.500- 114 2.10 195 2.10 209 2.12  96 2.13 205 2.13  92 2.13
  23  0.167  0.832  0.875- 117 2.09 116 2.10 119 2.11 118 2.13 107 2.13 106 2.13
  24  1.000  0.665  0.750- 118 2.09 199 2.09 209 2.13 213 2.13  96 2.13 100 2.13
  25  0.501  0.167  0.125- 121 2.10 120 2.10 122 2.10 127 2.12 123 2.12 126 2.13
  26  0.331  0.003  0.001- 164 2.07 122 2.10 107 2.11  85 2.12  74 2.13 152 2.15
  27  0.501  0.167  0.375- 125 2.10 124 2.10 130 2.10 127 2.12 131 2.12 126 2.13
  28  0.335  0.999  0.250- 126 2.10 111 2.10 156 2.11 152 2.11  78 2.13  74 2.13
  29  0.497  0.163  0.625- 129 2.09 128 2.10 134 2.12 130 2.12 135 2.14 131 2.15
  30  0.331  0.003  0.499- 160 2.07 130 2.10 115 2.11  81 2.12  78 2.13 156 2.15
  31  0.497  0.163  0.875- 133 2.09 132 2.10 134 2.12 122 2.12 135 2.14 123 2.15
  32  0.341  0.983  0.750- 119 2.11 160 2.15 164 2.15 134 2.15  85 2.24  81 2.24 166 2.32
  33  0.500  0.499  0.125- 136 2.09 137 2.10 139 2.13 143 2.13 142 2.13 138 2.13
  34  0.332  0.330  0.000-  76 2.11 138 2.11 132 2.12 120 2.13 101 2.13  89 2.13
  35  0.500  0.499  0.375- 140 2.09 141 2.10 147 2.13 143 2.13 142 2.13 146 2.13
  36  0.332  0.333  0.250-  79 2.10 142 2.10 120 2.12 124 2.12  93 2.12  89 2.12
  37  0.499  0.498  0.625- 144 2.09 145 2.10 151 2.11 150 2.13 146 2.13 147 2.14
  38  0.332  0.330  0.500-  83 2.11 146 2.11 128 2.12 124 2.13  97 2.13  93 2.13
  39  0.499  0.498  0.875- 148 2.09 149 2.10 151 2.11 150 2.13 138 2.13 139 2.14
  40  0.332  0.332  0.750- 150 2.08  87 2.09 132 2.13 128 2.13 101 2.13  97 2.13
  41  0.500  0.833  0.123- 155 2.10 153 2.10 152 2.10 154 2.14 159 2.14 158 2.14
  42  0.333  0.665  1.000-  91 2.09 154 2.09 148 2.12 117 2.12 136 2.13 105 2.13
  43  0.500  0.833  0.377- 163 2.10 157 2.10 156 2.10 162 2.14 159 2.14 158 2.14
  44  0.334  0.666  0.250- 158 2.10  95 2.11 140 2.12 136 2.12 105 2.13 109 2.13
  45  0.496  0.829  0.631- 162 2.12 167 2.13 160 2.13 161 2.13 163 2.24 216 2.27 166 2.28  47 3.14

  46  0.333  0.665  0.500-  99 2.09 162 2.09 144 2.12 113 2.12 140 2.13 109 2.13
  47  0.496  0.829  0.869- 154 2.12 167 2.13 164 2.13 165 2.13 155 2.24 166 2.27 216 2.28  45 3.14

  48  0.348  0.680  0.750- 148 2.16 113 2.16 144 2.16 117 2.16 216 2.24 166 2.24 103 2.28
  49  0.833  0.166  0.125- 168 2.09 169 2.10 170 2.12 174 2.13 171 2.13 175 2.13
  50  0.666  0.998  1.000- 155 2.08 170 2.12 212 2.12 133 2.13 121 2.13 200 2.14
  51  0.833  0.166  0.376- 172 2.09 173 2.10 178 2.12 174 2.13 179 2.13 175 2.13
  52  0.666  0.999  0.250- 159 2.09 174 2.10 200 2.13 204 2.13 125 2.13 121 2.13
  53  0.834  0.166  0.625- 177 2.09 176 2.09 182 2.12 183 2.13 179 2.13 178 2.14
  54  0.666  0.998  0.500- 163 2.08 178 2.12 208 2.12 129 2.13 125 2.13 204 2.14
  55  0.834  0.166  0.875- 181 2.09 180 2.09 182 2.12 183 2.13 171 2.13 170 2.14
  56  0.666  0.999  0.750- 167 2.08 182 2.10 212 2.13 208 2.13 129 2.13 133 2.13
  57  0.834  0.499  0.125- 184 2.09 185 2.09 187 2.12 190 2.13 186 2.13 191 2.13
  58  0.667  0.332  1.000- 123 2.09 186 2.10 149 2.11 180 2.13 168 2.13 137 2.13
  59  0.834  0.499  0.375- 188 2.09 189 2.09 195 2.12 190 2.13 194 2.13 191 2.13
  60  0.668  0.333  0.250- 190 2.09 127 2.09 137 2.12 141 2.12 172 2.13 168 2.13
  61  0.830  0.501  0.626- 192 2.09 198 2.12 199 2.12 193 2.13 194 2.13 195 2.14
  62  0.667  0.332  0.500- 131 2.09 194 2.10 145 2.11 176 2.13 172 2.13 141 2.13
  63  0.830  0.501  0.874- 196 2.09 198 2.12 199 2.12 197 2.13 186 2.13 187 2.14
  64  0.664  0.332  0.750- 135 2.10 198 2.10 149 2.12 145 2.13 180 2.14 176 2.14
  65  0.837  0.835  0.127- 200 2.10 201 2.10 202 2.12 203 2.12 206 2.13 207 2.13
  66  0.670  0.665  0.001- 165 2.06 202 2.11 139 2.12 196 2.12 184 2.12 153 2.15
  67  0.837  0.835  0.373- 204 2.10 205 2.10 210 2.12 211 2.12 206 2.13 207 2.13
  68  0.667  0.668  0.250- 153 2.11 157 2.11 143 2.11 206 2.11 184 2.13 188 2.13
  69  0.830  0.830  0.625- 208 2.09 209 2.10 214 2.12 210 2.12 215 2.14 211 2.16
  70  0.670  0.665  0.499- 161 2.06 210 2.11 147 2.12 192 2.12 188 2.12 157 2.15
  71  0.830  0.830  0.875- 212 2.09 213 2.10 214 2.12 202 2.12 215 2.14 203 2.16
  72  0.650  0.674  0.750- 151 2.11 165 2.15 161 2.15 214 2.15 192 2.23 196 2.23 216 2.31
  73  0.064  0.267  0.125-   1 2.09  12 2.13  10 2.14
  74  0.265  0.064  0.128-   1 2.09  26 2.13  28 2.13
  75  0.101  0.099  0.000-   2 2.09   1 2.12   7 2.14
  76  0.231  0.228  0.004-  34 2.11   7 2.14   1 2.17
  77  0.064  0.267  0.375-   3 2.09  12 2.13  14 2.14
  78  0.265  0.064  0.372-   3 2.09  30 2.13  28 2.13
  79  0.230  0.231  0.250-  36 2.10   3 2.13   1 2.13
  80  0.067  0.267  0.626-  14 2.12   5 2.12  16 2.14
  81  0.269  0.061  0.629-   5 2.09  30 2.12  32 2.24
  82  0.101  0.099  0.500-   6 2.09   3 2.12   5 2.14
  83  0.231  0.228  0.496-  38 2.11   5 2.14   3 2.17
  84  0.067  0.267  0.874-  10 2.12   7 2.12  16 2.13
  85  0.269  0.061  0.871-   7 2.09  26 2.12  32 2.24
  86  0.100  0.100  0.750-   8 2.10   5 2.13   7 2.13
  87  0.231  0.232  0.750-  40 2.09   7 2.13   5 2.13
  88  0.064  0.600  0.124-   9 2.09  20 2.13  18 2.13
  89  0.267  0.397  0.125-   9 2.09  36 2.12  34 2.13
  90  0.103  0.435  0.997-  10 2.09   9 2.13  15 2.17
  91  0.232  0.565  0.002-  42 2.09  15 2.12   9 2.12
  92  0.064  0.600  0.376-  11 2.09  20 2.13  22 2.13
  93  0.267  0.397  0.375-  11 2.09  36 2.12  38 2.13
  94  0.101  0.434  0.250-  12 2.09  11 2.13   9 2.13
  95  0.231  0.564  0.250-  44 2.11   9 2.14  11 2.14
  96  0.066  0.601  0.625-  13 2.10  22 2.13  24 2.13
  97  0.268  0.398  0.624-  13 2.10  38 2.13  40 2.13
  98  0.103  0.435  0.503-  14 2.09  11 2.13  13 2.17
  99  0.232  0.565  0.498-  46 2.09  13 2.12  11 2.12
 100  0.066  0.601  0.876-  15 2.10  18 2.13  24 2.13
 101  0.268  0.398  0.876-  15 2.10  34 2.13  40 2.13
 102  0.103  0.436  0.750-  16 2.11  15 2.13  13 2.13
 103  0.238  0.570  0.750-  13 2.12  15 2.12  48 2.28
 104  0.067  0.936  0.126-  17 2.10   4 2.12   2 2.14
 105  0.269  0.731  0.125-  17 2.09  44 2.13  42 2.13
 106  0.101  0.767  0.001-  18 2.10  17 2.12  23 2.13
 107  0.232  0.898  0.999-  26 2.11  17 2.12  23 2.13
[...]
 203  0.898  0.899  0.999-   2 2.08  65 2.12  71 2.16
 204  0.733  0.935  0.375-  67 2.10  52 2.13  54 2.14
 205  0.938  0.733  0.374-  67 2.10  20 2.12  22 2.13
 206  0.771  0.769  0.250-  68 2.11  65 2.13  67 2.13
 207  0.903  0.903  0.250-  67 2.13  65 2.13   4 2.15
 208  0.733  0.935  0.625-  69 2.09  54 2.12  56 2.13
 209  0.934  0.731  0.625-  69 2.10  22 2.12  24 2.13
 210  0.774  0.765  0.495-  70 2.11  67 2.12  69 2.12
 211  0.898  0.899  0.501-   6 2.08  67 2.12  69 2.16
 212  0.733  0.935  0.875-  71 2.09  50 2.12  56 2.13
 213  0.934  0.731  0.875-  71 2.10  18 2.12  24 2.13
 214  0.765  0.766  0.750-  71 2.12  69 2.12  72 2.15
 215  0.897  0.896  0.750-   8 2.10  71 2.14  69 2.14
 216  0.497  0.716  0.750-  48 2.24  45 2.27  47 2.28  72 2.31
 217  0.102  0.103  0.250-   4 1.96   1 1.99   3 2.00

IMPORTANT INFORMATION: All symmetrisations will be switched off!
NOSYMM: (Re-)initialisation of all symmetry stuff for point group C_1.

 KPOINTS: KPOINTS created by Atomic Simulation Env

Automatic generation of k-mesh.
Space group operators:
 irot       det(A)        alpha          n_x          n_y          n_z        tau_x        tau_y        tau_z
    1     1.000000     0.000000     1.000000     0.000000     0.000000     0.000000     0.000000     0.000000

 Subroutine IBZKPT returns following result:

 Found      4 irreducible k-points:

 Following reciprocal coordinates:
            Coordinates               Weight
  0.250000  0.250000  0.250000      2.000000
 -0.250000  0.250000  0.250000      2.000000
  0.250000 -0.250000  0.250000      2.000000
 -0.250000 -0.250000  0.250000      2.000000

 Following cartesian coordinates:
            Coordinates               Weight
  0.017111  0.017111  0.018996      2.000000
 -0.017111  0.017111  0.018996      2.000000
  0.017111 -0.017111  0.018996      2.000000
 -0.017111 -0.017111  0.018996      2.000000

 SYSTEM =  unknown system
 POSCAR =  Mn  F  H

 Startparameter for this run:
   NWRITE =      2    write-flag & timer
   PREC   = normal    normal or accurate (medium, high low for compatibility)
   ISTART =      1    job   : 0-new  1-cont  2-samecut
[...]

 Fermi contact (isotropic) hyperfine coupling parameter (MHz)
  ion      A_pw      A_1PS     A_1AE     A_1c      A_tot
   1     119.563   119.552    41.346  -113.289    41.357
   2    -120.674  -120.665   -36.871   114.169   -36.880
   3     119.563   119.552    41.344  -113.289    41.355
   4    -119.395  -119.385   -35.815   113.169   -35.825
   5     120.757   120.747    36.810  -114.413    36.819
   6    -120.674  -120.665   -36.871   114.169   -36.881
   7     120.756   120.747    36.809  -114.412    36.819
   8    -120.753  -120.744   -36.449   114.355   -36.458
   9     120.700   120.690    36.359  -114.220    36.368
  10    -120.728  -120.719   -36.161   114.312   -36.170
  11     120.700   120.690    36.359  -114.220    36.369
  12    -120.704  -120.695   -36.486   114.240   -36.496
  13     120.739   120.730    36.426  -114.332    36.435
  14    -120.728  -120.719   -36.161   114.312   -36.170
  15     120.739   120.730    36.426  -114.332    36.435
  16    -120.774  -120.765   -35.871   114.419   -35.879
  17     120.709   120.700    36.297  -114.245    36.306
  18    -120.720  -120.711   -36.292   114.265   -36.301
  19     120.709   120.700    36.297  -114.245    36.306
  20    -120.696  -120.687   -36.368   114.196   -36.377
  21     120.700   120.690    36.751  -114.241    36.760
  22    -120.720  -120.711   -36.295   114.266   -36.304
  23     120.700   120.690    36.757  -114.242    36.766
  24    -120.700  -120.691   -36.365   114.211   -36.374
  25     120.675   120.665    36.217  -114.144    36.226
  26    -120.617  -120.607   -36.079   114.048   -36.088
  27     120.675   120.666    36.213  -114.144    36.222
  28    -120.683  -120.674   -35.618   114.157   -35.627
  29     120.750   120.741    36.565  -114.340    36.574
  30    -120.618  -120.609   -36.066   114.050   -36.075
  31     120.751   120.742    36.571  -114.343    36.581
  32    -121.002  -120.993   -36.304   114.985   -36.312
  33     120.720   120.711    36.232  -114.279    36.241
  34    -120.751  -120.742   -36.495   114.348   -36.504
  35     120.720   120.711    36.232  -114.279    36.241
  36    -120.668  -120.659   -35.805   114.183   -35.814
  37     120.709   120.700    36.710  -114.271    36.719
  38    -120.751  -120.742   -36.492   114.347   -36.501
  39     120.709   120.700    36.703  -114.270    36.712
  40    -120.701  -120.692   -36.668   114.216   -36.678
  41     120.729   120.720    36.261  -114.334    36.270
  42    -120.662  -120.653   -36.162   114.122   -36.171
  43     120.729   120.720    36.261  -114.334    36.270
  44    -120.725  -120.716   -36.244   114.275   -36.253
  45     120.785   120.776    37.241  -114.608    37.250
  46    -120.662  -120.653   -36.162   114.122   -36.171
  47     120.785   120.775    37.243  -114.608    37.252
  48    -121.011  -121.003   -37.498   115.106   -37.506
  49     120.712   120.703    36.297  -114.252    36.306
  50    -120.708  -120.699   -36.465   114.261   -36.474
  51     120.712   120.703    36.297  -114.252    36.306
  52    -120.706  -120.697   -36.294   114.237   -36.303
  53     120.720   120.711    36.335  -114.271    36.344
  54    -120.708  -120.699   -36.465   114.261   -36.474
  55     120.720   120.711    36.335  -114.271    36.344
  56    -120.714  -120.705   -35.979   114.268   -35.988
  57     120.697   120.687    36.446  -114.218    36.455
  58    -120.700  -120.691   -36.386   114.209   -36.395
  59     120.696   120.687    36.446  -114.218    36.456
  60    -120.690  -120.680   -36.289   114.191   -36.298
[...]
 203       0.921     0.918     6.130    -0.628     6.133
 204      -1.030    -1.026    -6.260     0.738    -6.264
 205      -1.080    -1.077    -6.215     0.795    -6.219
 206       1.123     1.120     6.434    -0.829     6.438
 207       1.173     1.169     6.888    -0.859     6.892
 208      -1.054    -1.050    -6.377     0.757    -6.381
 209      -1.104    -1.100    -6.364     0.812    -6.367
 210       1.087     1.084     5.918    -0.821     5.922
 211       0.920     0.917     6.128    -0.628     6.131
 212      -1.054    -1.050    -6.374     0.757    -6.378
 213      -1.104    -1.100    -6.363     0.811    -6.367
 214       1.343     1.338     6.748    -1.046     6.753
 215       1.012     1.009     6.236    -0.720     6.239
 216       0.138     0.138    -0.681    -0.190    -0.681
 217      -0.204    -0.205    -0.332     0.000    -0.331

 Dipolar hyperfine coupling parameters (MHz)
  ion      A_xx      A_yy      A_zz      A_xy      A_xz      A_yz
   1      -0.379    -0.355     0.734    -0.675     0.666     0.658
   2       0.635     0.608    -1.243    -0.317    -0.038    -0.111
   3      -0.378    -0.356     0.734    -0.675    -0.666    -0.659
   4       0.965     0.975    -1.939     1.351    -0.000     0.000
   5      -0.659    -0.635     1.295    -0.315     0.087    -0.014
   6       0.634     0.608    -1.243    -0.317     0.038     0.111
   7      -0.660    -0.635     1.295    -0.315    -0.088     0.014
   8       0.713     0.578    -1.291    -0.260    -0.000    -0.000
   9      -0.632    -0.647     1.279    -0.261    -0.040    -0.042
  10       0.621     0.615    -1.236    -0.219     0.074    -0.001
  11      -0.633    -0.646     1.279    -0.261     0.040     0.042
  12       0.662     0.645    -1.307    -0.312     0.000    -0.000
  13      -0.630    -0.618     1.248    -0.171     0.038     0.035
  14       0.621     0.615    -1.236    -0.219    -0.073     0.000
  15      -0.630    -0.618     1.248    -0.171    -0.037    -0.036
  16       0.633     0.631    -1.264    -0.128     0.000    -0.000
  17      -0.674    -0.616     1.290    -0.235    -0.005     0.011
  18       0.645     0.621    -1.266    -0.231    -0.031    -0.013
  19      -0.674    -0.616     1.290    -0.235     0.005    -0.010
  20       0.697     0.603    -1.300    -0.233     0.000    -0.000
  21      -0.829    -0.494     1.323    -0.251    -0.052     0.057
  22       0.645     0.621    -1.266    -0.232     0.031     0.012
  23      -0.830    -0.492     1.322    -0.251     0.052    -0.057
  24       0.700     0.603    -1.303    -0.261    -0.000     0.000
  25      -0.585    -0.712     1.297    -0.192     0.087     0.044
  26       0.463     0.767    -1.230    -0.068     0.167    -0.090
  27      -0.585    -0.711     1.296    -0.192    -0.086    -0.043
  28       0.614     0.649    -1.263    -0.124     0.000     0.000
  29      -0.556    -0.738     1.293    -0.231    -0.021    -0.066
  30       0.466     0.764    -1.230    -0.068    -0.166     0.090
  31      -0.555    -0.739     1.293    -0.232     0.020     0.067
  32       0.551     0.465    -1.016    -0.116    -0.001    -0.002
  33      -0.620    -0.645     1.265    -0.225    -0.003    -0.002
  34       0.633     0.650    -1.282    -0.219     0.022     0.019
  35      -0.620    -0.644     1.264    -0.225     0.003     0.001
  36       0.628     0.727    -1.355    -0.121     0.000    -0.000
  37      -0.480    -0.818     1.298    -0.245     0.071    -0.043
  38       0.632     0.650    -1.282    -0.219    -0.022    -0.019
  39      -0.482    -0.816     1.298    -0.244    -0.070     0.043
  40       0.609     0.709    -1.318    -0.308    -0.000     0.000
  41      -0.633    -0.632     1.265    -0.245    -0.066    -0.074
  42       0.617     0.619    -1.235    -0.276     0.054     0.053
  43      -0.634    -0.630     1.265    -0.245     0.066     0.074
  44       0.627     0.622    -1.249    -0.230    -0.000     0.000
  45      -0.685    -0.686     1.371    -0.565     0.207     0.206
  46       0.618     0.617    -1.235    -0.276    -0.055    -0.052
  47      -0.670    -0.701     1.371    -0.565    -0.201    -0.212
  48       0.451     0.461    -0.912     0.266     0.001    -0.000
  49      -0.618    -0.645     1.263    -0.236     0.009    -0.010
  50       0.624     0.628    -1.252    -0.299     0.014    -0.007
  51      -0.618    -0.645     1.263    -0.236    -0.009     0.011
  52       0.638     0.629    -1.268    -0.249     0.000    -0.000
  53      -0.643    -0.622     1.265    -0.254    -0.016    -0.004
  54       0.623     0.629    -1.252    -0.299    -0.014     0.007
  55      -0.644    -0.621     1.265    -0.254     0.016     0.004
  56       0.646     0.644    -1.290    -0.269    -0.001     0.001
  57      -0.636    -0.633     1.269    -0.277     0.006    -0.007
  58       0.629     0.646    -1.274    -0.245    -0.088    -0.013
  59      -0.635    -0.633     1.269    -0.278    -0.005     0.007
  60       0.604     0.655    -1.259    -0.265     0.000     0.000
[...]
 203      -1.503    -1.404     2.907    -0.272     0.013     0.023
 204       1.413     1.432    -2.846    -0.251    -0.034     0.026
 205       1.520     1.373    -2.892    -0.299     0.064    -0.033
 206      -1.439    -1.312     2.751    -0.139     0.000     0.000
 207      -1.369    -1.265     2.634    -0.389     0.001     0.000
 208       1.171     1.633    -2.804    -0.262    -0.006    -0.015
 209       1.533     1.323    -2.856    -0.224    -0.057    -0.020
 210      -1.926    -1.123     3.049    -0.400    -0.131    -0.027
 211      -1.504    -1.403     2.907    -0.272    -0.014    -0.024
 212       1.171     1.633    -2.805    -0.263     0.006     0.016
 213       1.533     1.323    -2.856    -0.224     0.056     0.020
 214      -1.740    -1.060     2.800    -0.251     0.000    -0.001
 215      -1.427    -1.369     2.795    -0.146    -0.000    -0.000
 216      -6.787     3.849     2.938     0.210     0.004    -0.004
 217      -1.457    -1.634     3.091    -0.407     0.000    -0.001

 Total hyperfine coupling parameters after diagonalization (MHz)
 (convention: |A_zz| > |A_xx| > |A_yy|)
  ion      A_xx      A_yy      A_zz     asymmetry (A_yy - A_xx)/ A_zz
   1      41.665    39.912    42.493      -0.041
   2     -36.569   -35.940   -38.131      -0.016
   3      41.663    39.910    42.492      -0.041
   4     -36.206   -33.505   -37.765      -0.072
   5      36.484    35.855    38.118      -0.016
   6     -36.570   -35.941   -38.132      -0.017
   7      36.484    35.855    38.118      -0.016
   8     -36.081   -35.544   -37.749      -0.014
   9      35.991    35.466    37.649      -0.014
  10     -35.770   -35.332   -37.409      -0.012
  11      35.991    35.466    37.649      -0.014
  12     -36.155   -35.530   -37.802      -0.017
  13      35.982    35.639    37.684      -0.009
  14     -35.770   -35.332   -37.409      -0.012
  15      35.982    35.639    37.684      -0.009
  16     -35.375   -35.119   -37.143      -0.007
  17      35.898    35.424    37.596      -0.013
  18     -35.899   -35.436   -37.568      -0.012
  19      35.898    35.424    37.597      -0.013
  20     -35.964   -35.489   -37.677      -0.013
  21      36.397    35.797    38.086      -0.016
  22     -35.902   -35.439   -37.571      -0.012
  23      36.405    35.802    38.092      -0.016
  24     -35.989   -35.457   -37.677      -0.014
  25      35.779    35.372    37.528      -0.011
  26     -35.627   -35.299   -37.338      -0.009
  27      35.774    35.368    37.522      -0.011
  28     -35.121   -34.870   -36.890      -0.007
  29      36.175    35.677    37.869      -0.013
  30     -35.612   -35.288   -37.324      -0.009
  31      36.184    35.682    37.876      -0.013
  32     -35.928   -35.680   -37.328      -0.007
  33      35.834    35.383    37.506      -0.012
  34     -36.081   -35.644   -37.787      -0.012
  35      35.834    35.383    37.505      -0.012
  36     -35.267   -35.006   -37.169      -0.007
  37      36.364    35.772    38.021      -0.016
  38     -36.078   -35.641   -37.784      -0.012
  39      36.355    35.767    38.014      -0.015
  40     -36.331   -35.706   -37.996      -0.016
  41      35.882    35.389    37.540      -0.013
  42     -35.826   -35.277   -37.410      -0.015
  43      35.882    35.389    37.540      -0.013
  44     -35.858   -35.398   -37.502      -0.012
  45      37.129    35.967    38.653      -0.030
  46     -35.826   -35.277   -37.410      -0.015
  47      37.132    35.969    38.656      -0.030
  48     -37.316   -36.785   -38.419      -0.014
  49      35.911    35.438    37.569      -0.013
  50     -36.147   -35.548   -37.726      -0.016
  51      35.911    35.438    37.569      -0.013
  52     -35.918   -35.420   -37.571      -0.013
  53      35.966    35.458    37.609      -0.014
  54     -36.147   -35.549   -37.726      -0.016
  55      35.966    35.458    37.609      -0.014
  56     -35.612   -35.073   -37.278      -0.014
  57      36.098    35.543    37.724      -0.015
  58     -36.000   -35.511   -37.673      -0.013
  59      36.099    35.544    37.724      -0.015
  60     -35.936   -35.402   -37.557      -0.014
[...]
 203       4.956     4.403     9.040      -0.061
 204      -5.092    -4.590    -9.110      -0.055
 205      -5.081    -4.463    -9.112      -0.068
 206       5.215     4.909     9.189      -0.033
 207       5.968     5.182     9.526      -0.082
 208      -5.328    -4.629    -9.185      -0.076
 209      -5.186    -4.692    -9.224      -0.054
 210       4.964     3.827     8.974      -0.127
 211       4.954     4.401     9.039      -0.061
 212      -5.325    -4.625    -9.182      -0.076
 213      -5.185    -4.691    -9.224      -0.054
 214       5.775     4.930     9.553      -0.088
 215       4.990     4.693     9.035      -0.033
 216       3.172     2.256    -7.472       0.123
 217      -2.293    -1.460     2.760       0.302

 writing wavefunctions

 total charge

[...]

 magnetization (x)

# of ion       s       p       d       tot
    1        0.020   0.019   4.531   4.569
    2       -0.018  -0.018  -4.567  -4.603
    3        0.020   0.019   4.531   4.570
    4       -0.017  -0.017  -4.525  -4.559
    5        0.018   0.018   4.571   4.607
    6       -0.018  -0.018  -4.567  -4.603
    7        0.018   0.018   4.571   4.607
    8       -0.018  -0.018  -4.570  -4.606
    9        0.018   0.018   4.568   4.603
   10       -0.018  -0.018  -4.569  -4.604
   11        0.018   0.018   4.568   4.603
   12       -0.018  -0.018  -4.568  -4.604
   13        0.018   0.018   4.570   4.605
   14       -0.018  -0.018  -4.569  -4.604
   15        0.018   0.018   4.570   4.605
   16       -0.017  -0.017  -4.571  -4.606
   17        0.018   0.018   4.568   4.604
   18       -0.018  -0.018  -4.569  -4.604
   19        0.018   0.018   4.568   4.604
   20       -0.018  -0.018  -4.567  -4.603
   21        0.018   0.018   4.568   4.604
   22       -0.018  -0.018  -4.569  -4.604
   23        0.018   0.018   4.568   4.604
   24       -0.018  -0.018  -4.568  -4.603
   25        0.018   0.018   4.566   4.602
   26       -0.017  -0.018  -4.564  -4.599
   27        0.018   0.018   4.566   4.602
   28       -0.017  -0.018  -4.567  -4.602
   29        0.018   0.018   4.570   4.606
   30       -0.017  -0.018  -4.564  -4.599
   31        0.018   0.018   4.570   4.606
   32       -0.018  -0.018  -4.581  -4.617
   33        0.018   0.018   4.569   4.604
   34       -0.018  -0.018  -4.570  -4.606
   35        0.018   0.018   4.569   4.604
   36       -0.017  -0.018  -4.566  -4.601
   37        0.018   0.018   4.568   4.604
   38       -0.018  -0.018  -4.570  -4.606
   39        0.018   0.018   4.568   4.604
   40       -0.018  -0.018  -4.568  -4.603
   41        0.018   0.018   4.569   4.605
   42       -0.018  -0.018  -4.566  -4.601
   43        0.018   0.018   4.569   4.605
   44       -0.018  -0.018  -4.569  -4.604
   45        0.018   0.017   4.572   4.608
   46       -0.018  -0.018  -4.566  -4.601
   47        0.018   0.017   4.572   4.608
   48       -0.019  -0.019  -4.582  -4.620
   49        0.018   0.018   4.568   4.604
   50       -0.018  -0.018  -4.568  -4.604
   51        0.018   0.018   4.568   4.604
   52       -0.018  -0.018  -4.568  -4.603
   53        0.018   0.018   4.569   4.604
   54       -0.018  -0.018  -4.568  -4.604
   55        0.018   0.018   4.569   4.604
   56       -0.017  -0.018  -4.568  -4.603
   57        0.018   0.018   4.568   4.603
   58       -0.018  -0.018  -4.568  -4.603
   59        0.018   0.018   4.568   4.603
   60       -0.018  -0.018  -4.567  -4.603
[...]
  203        0.002   0.017   0.000   0.019
  204       -0.002  -0.019   0.000  -0.021
  205       -0.002  -0.021   0.000  -0.023
  206        0.002   0.021   0.000   0.024
  207        0.002   0.022   0.000   0.024
  208       -0.002  -0.020   0.000  -0.022
  209       -0.002  -0.021   0.000  -0.023
  210        0.002   0.021   0.000   0.023
  211        0.002   0.017   0.000   0.019
  212       -0.002  -0.020   0.000  -0.022
  213       -0.002  -0.021   0.000  -0.023
  214        0.002   0.027   0.000   0.029
  215        0.002   0.019   0.000   0.021
  216       -0.000   0.004   0.000   0.004
  217       -0.004   0.001   0.000  -0.003
tot          0.002  -0.015  -0.030  -0.043